*SPEF "ieee 1481-1999"
*DESIGN "udma_uart_tx"
*DATE "16:53:00 Saturday July 25, 2026"
*VENDOR "The OpenROAD Project"
*PROGRAM "OpenROAD"
*VERSION "dcf36133a369abc8f3c5e5738cd4d82e4903c0e0"
*DESIGN_FLOW "NAME_SCOPE LOCAL" "PIN_CAP NONE"
*DIVIDER /
*DELIMITER :
*BUS_DELIMITER []
*T_UNIT 1 NS
*C_UNIT 1 PF
*R_UNIT 1 OHM
*L_UNIT 1 HENRY

*NAME_MAP
*3 busy_o
*4 cfg_bits_i[0]
*5 cfg_bits_i[1]
*6 cfg_div_i[0]
*7 cfg_div_i[10]
*8 cfg_div_i[11]
*9 cfg_div_i[12]
*10 cfg_div_i[13]
*11 cfg_div_i[14]
*12 cfg_div_i[15]
*13 cfg_div_i[1]
*14 cfg_div_i[2]
*15 cfg_div_i[3]
*16 cfg_div_i[4]
*17 cfg_div_i[5]
*18 cfg_div_i[6]
*19 cfg_div_i[7]
*20 cfg_div_i[8]
*21 cfg_div_i[9]
*22 cfg_en_i
*23 cfg_parity_en_i
*24 cfg_stop_bits_i
*25 clk_i
*26 rstn_i
*27 tx_data_i[0]
*28 tx_data_i[1]
*29 tx_data_i[2]
*30 tx_data_i[3]
*31 tx_data_i[4]
*32 tx_data_i[5]
*33 tx_data_i[6]
*34 tx_data_i[7]
*35 tx_o
*36 tx_ready_o
*37 tx_valid_i
*38 CS\[0\]
*39 CS\[1\]
*40 CS\[2\]
*41 _000_
*42 _001_
*43 _002_
*44 _003_
*45 _004_
*46 _005_
*47 _006_
*48 _007_
*49 _008_
*50 _009_
*51 _010_
*52 _011_
*53 _012_
*54 _013_
*55 _014_
*56 _015_
*57 _016_
*58 _017_
*59 _018_
*60 _019_
*61 _020_
*62 _021_
*63 _022_
*64 _023_
*65 _024_
*66 _025_
*67 _026_
*68 _027_
*69 _028_
*70 _029_
*71 _030_
*72 _031_
*73 _032_
*74 _033_
*75 _034_
*76 _035_
*77 _036_
*78 _037_
*79 _038_
*80 _039_
*81 _040_
*82 _041_
*83 _042_
*84 _043_
*85 _044_
*86 _045_
*87 _046_
*88 _047_
*89 _048_
*90 _049_
*91 _050_
*92 _051_
*93 _052_
*94 _053_
*95 _054_
*96 _055_
*97 _056_
*98 _057_
*99 _058_
*100 _059_
*101 _060_
*102 _061_
*103 _062_
*104 _063_
*105 _064_
*106 _065_
*107 _066_
*108 _067_
*109 _068_
*110 _069_
*111 _070_
*112 _071_
*113 _072_
*114 _073_
*115 _074_
*116 _075_
*117 _076_
*118 _077_
*119 _078_
*120 _079_
*121 _080_
*122 _081_
*123 _082_
*124 _083_
*125 _084_
*126 _085_
*127 _086_
*128 _087_
*129 _088_
*130 _089_
*131 _090_
*132 _091_
*133 _092_
*134 _093_
*135 _094_
*136 _095_
*137 _096_
*138 _097_
*139 _098_
*140 _099_
*141 _100_
*142 _101_
*143 _102_
*144 _103_
*145 _104_
*146 _105_
*147 _106_
*148 _107_
*149 _108_
*150 _109_
*151 _110_
*152 _111_
*153 _112_
*154 _113_
*155 _114_
*156 _115_
*157 _116_
*158 _117_
*159 _118_
*160 _119_
*161 _120_
*162 _121_
*163 _122_
*164 _123_
*165 _124_
*166 _125_
*167 _126_
*168 _127_
*169 _128_
*170 _129_
*171 _130_
*172 _131_
*173 _132_
*174 _133_
*175 _134_
*176 _135_
*177 _136_
*178 _137_
*179 baud_cnt\[0\]
*180 baud_cnt\[10\]
*181 baud_cnt\[11\]
*182 baud_cnt\[12\]
*183 baud_cnt\[13\]
*184 baud_cnt\[14\]
*185 baud_cnt\[15\]
*186 baud_cnt\[1\]
*187 baud_cnt\[2\]
*188 baud_cnt\[3\]
*189 baud_cnt\[4\]
*190 baud_cnt\[5\]
*191 baud_cnt\[6\]
*192 baud_cnt\[7\]
*193 baud_cnt\[8\]
*194 baud_cnt\[9\]
*195 bit_done
*196 clknet_0_clk_i
*197 clknet_2_0__leaf_clk_i
*198 clknet_2_1__leaf_clk_i
*199 clknet_2_2__leaf_clk_i
*200 clknet_2_3__leaf_clk_i
*201 net1
*202 net10
*203 net11
*204 net12
*205 net13
*206 net14
*207 net15
*208 net16
*209 net17
*210 net18
*211 net19
*212 net2
*213 net20
*214 net21
*215 net22
*216 net23
*217 net24
*218 net25
*219 net26
*220 net27
*221 net28
*222 net29
*223 net3
*224 net30
*225 net31
*226 net32
*227 net33
*228 net34
*229 net35
*230 net36
*231 net37
*232 net38
*233 net39
*234 net4
*235 net40
*236 net41
*237 net42
*238 net43
*239 net44
*240 net45
*241 net46
*242 net5
*243 net6
*244 net7
*245 net8
*246 net9
*247 parity_bit
*248 reg_bit_count\[0\]
*249 reg_bit_count\[1\]
*250 reg_data\[0\]
*251 reg_data\[1\]
*252 reg_data\[2\]
*253 reg_data\[3\]
*254 reg_data\[4\]
*255 reg_data\[5\]
*256 reg_data\[6\]
*257 reg_data\[7\]
*258 FILLER_0_104
*259 FILLER_0_106
*260 FILLER_0_123
*261 FILLER_0_131
*262 FILLER_0_135
*263 FILLER_0_172
*264 FILLER_0_2
*265 FILLER_0_206
*266 FILLER_0_222
*267 FILLER_0_230
*268 FILLER_0_36
*269 FILLER_0_70
*270 FILLER_10_107
*271 FILLER_10_173
*272 FILLER_10_177
*273 FILLER_10_18
*274 FILLER_10_185
*275 FILLER_10_189
*276 FILLER_10_2
*277 FILLER_10_28
*278 FILLER_10_32
*279 FILLER_10_34
*280 FILLER_10_37
*281 FILLER_10_53
*282 FILLER_10_89
*283 FILLER_11_10
*284 FILLER_11_128
*285 FILLER_11_136
*286 FILLER_11_14
*287 FILLER_11_142
*288 FILLER_11_163
*289 FILLER_11_195
*290 FILLER_11_2
*291 FILLER_11_212
*292 FILLER_11_49
*293 FILLER_11_65
*294 FILLER_11_69
*295 FILLER_11_72
*296 FILLER_11_76
*297 FILLER_12_107
*298 FILLER_12_123
*299 FILLER_12_125
*300 FILLER_12_162
*301 FILLER_12_170
*302 FILLER_12_174
*303 FILLER_12_177
*304 FILLER_12_209
*305 FILLER_12_225
*306 FILLER_12_229
*307 FILLER_12_231
*308 FILLER_12_30
*309 FILLER_12_34
*310 FILLER_12_37
*311 FILLER_12_53
*312 FILLER_12_61
*313 FILLER_13_10
*314 FILLER_13_128
*315 FILLER_13_136
*316 FILLER_13_142
*317 FILLER_13_174
*318 FILLER_13_190
*319 FILLER_13_2
*320 FILLER_13_204
*321 FILLER_13_208
*322 FILLER_13_212
*323 FILLER_13_228
*324 FILLER_13_46
*325 FILLER_13_72
*326 FILLER_13_74
*327 FILLER_13_91
*328 FILLER_13_93
*329 FILLER_14_102
*330 FILLER_14_104
*331 FILLER_14_107
*332 FILLER_14_171
*333 FILLER_14_177
*334 FILLER_14_185
*335 FILLER_14_187
*336 FILLER_14_209
*337 FILLER_14_213
*338 FILLER_14_215
*339 FILLER_14_34
*340 FILLER_14_43
*341 FILLER_14_59
*342 FILLER_14_67
*343 FILLER_14_77
*344 FILLER_15_10
*345 FILLER_15_103
*346 FILLER_15_12
*347 FILLER_15_135
*348 FILLER_15_139
*349 FILLER_15_142
*350 FILLER_15_158
*351 FILLER_15_166
*352 FILLER_15_170
*353 FILLER_15_2
*354 FILLER_15_212
*355 FILLER_15_228
*356 FILLER_15_47
*357 FILLER_15_63
*358 FILLER_15_67
*359 FILLER_15_69
*360 FILLER_15_72
*361 FILLER_15_76
*362 FILLER_15_87
*363 FILLER_15_95
*364 FILLER_16_107
*365 FILLER_16_171
*366 FILLER_16_177
*367 FILLER_16_18
*368 FILLER_16_185
*369 FILLER_16_189
*370 FILLER_16_191
*371 FILLER_16_217
*372 FILLER_16_225
*373 FILLER_16_229
*374 FILLER_16_231
*375 FILLER_16_53
*376 FILLER_16_61
*377 FILLER_16_65
*378 FILLER_17_142
*379 FILLER_17_158
*380 FILLER_17_166
*381 FILLER_17_170
*382 FILLER_17_184
*383 FILLER_17_192
*384 FILLER_17_203
*385 FILLER_17_221
*386 FILLER_17_229
*387 FILLER_17_231
*388 FILLER_17_40
*389 FILLER_17_56
*390 FILLER_17_64
*391 FILLER_17_68
*392 FILLER_17_72
*393 FILLER_17_88
*394 FILLER_18_100
*395 FILLER_18_104
*396 FILLER_18_107
*397 FILLER_18_123
*398 FILLER_18_127
*399 FILLER_18_163
*400 FILLER_18_185
*401 FILLER_18_201
*402 FILLER_18_211
*403 FILLER_18_215
*404 FILLER_18_30
*405 FILLER_18_34
*406 FILLER_18_37
*407 FILLER_18_44
*408 FILLER_18_76
*409 FILLER_18_92
*410 FILLER_19_109
*411 FILLER_19_117
*412 FILLER_19_121
*413 FILLER_19_138
*414 FILLER_19_142
*415 FILLER_19_189
*416 FILLER_19_197
*417 FILLER_19_203
*418 FILLER_19_207
*419 FILLER_19_209
*420 FILLER_19_212
*421 FILLER_19_228
*422 FILLER_19_30
*423 FILLER_19_32
*424 FILLER_19_47
*425 FILLER_19_63
*426 FILLER_19_67
*427 FILLER_19_69
*428 FILLER_19_72
*429 FILLER_19_74
*430 FILLER_19_97
*431 FILLER_19_99
*432 FILLER_1_115
*433 FILLER_1_123
*434 FILLER_1_174
*435 FILLER_1_2
*436 FILLER_1_206
*437 FILLER_1_212
*438 FILLER_1_66
*439 FILLER_1_72
*440 FILLER_1_80
*441 FILLER_20_104
*442 FILLER_20_107
*443 FILLER_20_109
*444 FILLER_20_150
*445 FILLER_20_166
*446 FILLER_20_174
*447 FILLER_20_197
*448 FILLER_20_199
*449 FILLER_20_207
*450 FILLER_20_223
*451 FILLER_20_231
*452 FILLER_20_30
*453 FILLER_20_34
*454 FILLER_20_50
*455 FILLER_20_64
*456 FILLER_20_68
*457 FILLER_21_103
*458 FILLER_21_132
*459 FILLER_21_142
*460 FILLER_21_174
*461 FILLER_21_18
*462 FILLER_21_186
*463 FILLER_21_194
*464 FILLER_21_196
*465 FILLER_21_204
*466 FILLER_21_208
*467 FILLER_21_218
*468 FILLER_21_22
*469 FILLER_21_226
*470 FILLER_21_230
*471 FILLER_21_57
*472 FILLER_21_65
*473 FILLER_21_69
*474 FILLER_21_84
*475 FILLER_21_92
*476 FILLER_21_96
*477 FILLER_22_102
*478 FILLER_22_104
*479 FILLER_22_107
*480 FILLER_22_115
*481 FILLER_22_177
*482 FILLER_22_18
*483 FILLER_22_185
*484 FILLER_22_20
*485 FILLER_22_211
*486 FILLER_22_215
*487 FILLER_22_37
*488 FILLER_22_41
*489 FILLER_22_53
*490 FILLER_22_69
*491 FILLER_22_81
*492 FILLER_22_94
*493 FILLER_23_10
*494 FILLER_23_135
*495 FILLER_23_139
*496 FILLER_23_14
*497 FILLER_23_142
*498 FILLER_23_174
*499 FILLER_23_182
*500 FILLER_23_2
*501 FILLER_23_27
*502 FILLER_23_59
*503 FILLER_23_67
*504 FILLER_23_69
*505 FILLER_23_72
*506 FILLER_24_101
*507 FILLER_24_107
*508 FILLER_24_171
*509 FILLER_24_177
*510 FILLER_24_185
*511 FILLER_24_2
*512 FILLER_24_203
*513 FILLER_24_214
*514 FILLER_24_34
*515 FILLER_24_37
*516 FILLER_25_136
*517 FILLER_25_142
*518 FILLER_25_158
*519 FILLER_25_166
*520 FILLER_25_170
*521 FILLER_25_172
*522 FILLER_25_18
*523 FILLER_25_2
*524 FILLER_25_207
*525 FILLER_25_209
*526 FILLER_25_212
*527 FILLER_25_26
*528 FILLER_25_36
*529 FILLER_25_68
*530 FILLER_25_72
*531 FILLER_26_103
*532 FILLER_26_107
*533 FILLER_26_111
*534 FILLER_26_121
*535 FILLER_26_125
*536 FILLER_26_127
*537 FILLER_26_138
*538 FILLER_26_170
*539 FILLER_26_174
*540 FILLER_26_177
*541 FILLER_26_18
*542 FILLER_26_181
*543 FILLER_26_183
*544 FILLER_26_2
*545 FILLER_26_218
*546 FILLER_26_226
*547 FILLER_26_230
*548 FILLER_26_26
*549 FILLER_26_46
*550 FILLER_26_78
*551 FILLER_27_150
*552 FILLER_27_182
*553 FILLER_27_198
*554 FILLER_27_2
*555 FILLER_27_206
*556 FILLER_27_212
*557 FILLER_27_59
*558 FILLER_27_6
*559 FILLER_27_67
*560 FILLER_27_69
*561 FILLER_27_8
*562 FILLER_28_10
*563 FILLER_28_101
*564 FILLER_28_107
*565 FILLER_28_111
*566 FILLER_28_162
*567 FILLER_28_170
*568 FILLER_28_174
*569 FILLER_28_177
*570 FILLER_28_2
*571 FILLER_28_209
*572 FILLER_28_225
*573 FILLER_28_229
*574 FILLER_28_231
*575 FILLER_28_45
*576 FILLER_29_123
*577 FILLER_29_127
*578 FILLER_29_137
*579 FILLER_29_139
*580 FILLER_29_142
*581 FILLER_29_2
*582 FILLER_29_206
*583 FILLER_29_212
*584 FILLER_29_228
*585 FILLER_29_42
*586 FILLER_29_46
*587 FILLER_29_55
*588 FILLER_29_6
*589 FILLER_29_63
*590 FILLER_29_67
*591 FILLER_29_69
*592 FILLER_29_72
*593 FILLER_29_76
*594 FILLER_29_78
*595 FILLER_2_102
*596 FILLER_2_104
*597 FILLER_2_122
*598 FILLER_2_124
*599 FILLER_2_167
*600 FILLER_2_177
*601 FILLER_2_185
*602 FILLER_2_2
*603 FILLER_2_220
*604 FILLER_2_228
*605 FILLER_2_34
*606 FILLER_2_37
*607 FILLER_2_53
*608 FILLER_2_61
*609 FILLER_2_98
*610 FILLER_30_102
*611 FILLER_30_104
*612 FILLER_30_115
*613 FILLER_30_131
*614 FILLER_30_163
*615 FILLER_30_171
*616 FILLER_30_177
*617 FILLER_30_18
*618 FILLER_30_2
*619 FILLER_30_209
*620 FILLER_30_225
*621 FILLER_30_229
*622 FILLER_30_231
*623 FILLER_30_28
*624 FILLER_30_32
*625 FILLER_30_34
*626 FILLER_30_37
*627 FILLER_30_69
*628 FILLER_30_73
*629 FILLER_30_86
*630 FILLER_31_10
*631 FILLER_31_117
*632 FILLER_31_135
*633 FILLER_31_139
*634 FILLER_31_142
*635 FILLER_31_2
*636 FILLER_31_206
*637 FILLER_31_212
*638 FILLER_31_228
*639 FILLER_31_48
*640 FILLER_31_64
*641 FILLER_31_68
*642 FILLER_31_72
*643 FILLER_31_80
*644 FILLER_31_84
*645 FILLER_32_138
*646 FILLER_32_172
*647 FILLER_32_2
*648 FILLER_32_206
*649 FILLER_32_222
*650 FILLER_32_230
*651 FILLER_32_36
*652 FILLER_32_70
*653 FILLER_3_108
*654 FILLER_3_124
*655 FILLER_3_142
*656 FILLER_3_174
*657 FILLER_3_2
*658 FILLER_3_206
*659 FILLER_3_212
*660 FILLER_3_229
*661 FILLER_3_231
*662 FILLER_3_34
*663 FILLER_3_50
*664 FILLER_3_54
*665 FILLER_4_107
*666 FILLER_4_123
*667 FILLER_4_127
*668 FILLER_4_164
*669 FILLER_4_172
*670 FILLER_4_174
*671 FILLER_4_177
*672 FILLER_4_181
*673 FILLER_4_2
*674 FILLER_4_217
*675 FILLER_4_225
*676 FILLER_4_229
*677 FILLER_4_231
*678 FILLER_4_34
*679 FILLER_4_37
*680 FILLER_4_69
*681 FILLER_4_73
*682 FILLER_5_123
*683 FILLER_5_131
*684 FILLER_5_133
*685 FILLER_5_157
*686 FILLER_5_189
*687 FILLER_5_193
*688 FILLER_5_195
*689 FILLER_5_2
*690 FILLER_5_212
*691 FILLER_5_66
*692 FILLER_6_122
*693 FILLER_6_130
*694 FILLER_6_134
*695 FILLER_6_150
*696 FILLER_6_166
*697 FILLER_6_174
*698 FILLER_6_177
*699 FILLER_6_193
*700 FILLER_6_195
*701 FILLER_6_2
*702 FILLER_6_209
*703 FILLER_6_225
*704 FILLER_6_229
*705 FILLER_6_231
*706 FILLER_6_34
*707 FILLER_6_37
*708 FILLER_6_69
*709 FILLER_6_77
*710 FILLER_6_81
*711 FILLER_6_97
*712 FILLER_7_129
*713 FILLER_7_137
*714 FILLER_7_139
*715 FILLER_7_155
*716 FILLER_7_187
*717 FILLER_7_191
*718 FILLER_7_2
*719 FILLER_7_208
*720 FILLER_7_216
*721 FILLER_7_66
*722 FILLER_7_72
*723 FILLER_7_88
*724 FILLER_7_92
*725 FILLER_8_101
*726 FILLER_8_107
*727 FILLER_8_166
*728 FILLER_8_174
*729 FILLER_8_181
*730 FILLER_8_197
*731 FILLER_8_199
*732 FILLER_8_2
*733 FILLER_8_216
*734 FILLER_8_34
*735 FILLER_8_37
*736 FILLER_9_104
*737 FILLER_9_120
*738 FILLER_9_124
*739 FILLER_9_142
*740 FILLER_9_146
*741 FILLER_9_162
*742 FILLER_9_2
*743 FILLER_9_200
*744 FILLER_9_224
*745 FILLER_9_66
*746 FILLER_9_72
*747 PHY_EDGE_ROW_0_Left_33
*748 PHY_EDGE_ROW_0_Right_0
*749 PHY_EDGE_ROW_10_Left_43
*750 PHY_EDGE_ROW_10_Right_10
*751 PHY_EDGE_ROW_11_Left_44
*752 PHY_EDGE_ROW_11_Right_11
*753 PHY_EDGE_ROW_12_Left_45
*754 PHY_EDGE_ROW_12_Right_12
*755 PHY_EDGE_ROW_13_Left_46
*756 PHY_EDGE_ROW_13_Right_13
*757 PHY_EDGE_ROW_14_Left_47
*758 PHY_EDGE_ROW_14_Right_14
*759 PHY_EDGE_ROW_15_Left_48
*760 PHY_EDGE_ROW_15_Right_15
*761 PHY_EDGE_ROW_16_Left_49
*762 PHY_EDGE_ROW_16_Right_16
*763 PHY_EDGE_ROW_17_Left_50
*764 PHY_EDGE_ROW_17_Right_17
*765 PHY_EDGE_ROW_18_Left_51
*766 PHY_EDGE_ROW_18_Right_18
*767 PHY_EDGE_ROW_19_Left_52
*768 PHY_EDGE_ROW_19_Right_19
*769 PHY_EDGE_ROW_1_Left_34
*770 PHY_EDGE_ROW_1_Right_1
*771 PHY_EDGE_ROW_20_Left_53
*772 PHY_EDGE_ROW_20_Right_20
*773 PHY_EDGE_ROW_21_Left_54
*774 PHY_EDGE_ROW_21_Right_21
*775 PHY_EDGE_ROW_22_Left_55
*776 PHY_EDGE_ROW_22_Right_22
*777 PHY_EDGE_ROW_23_Left_56
*778 PHY_EDGE_ROW_23_Right_23
*779 PHY_EDGE_ROW_24_Left_57
*780 PHY_EDGE_ROW_24_Right_24
*781 PHY_EDGE_ROW_25_Left_58
*782 PHY_EDGE_ROW_25_Right_25
*783 PHY_EDGE_ROW_26_Left_59
*784 PHY_EDGE_ROW_26_Right_26
*785 PHY_EDGE_ROW_27_Left_60
*786 PHY_EDGE_ROW_27_Right_27
*787 PHY_EDGE_ROW_28_Left_61
*788 PHY_EDGE_ROW_28_Right_28
*789 PHY_EDGE_ROW_29_Left_62
*790 PHY_EDGE_ROW_29_Right_29
*791 PHY_EDGE_ROW_2_Left_35
*792 PHY_EDGE_ROW_2_Right_2
*793 PHY_EDGE_ROW_30_Left_63
*794 PHY_EDGE_ROW_30_Right_30
*795 PHY_EDGE_ROW_31_Left_64
*796 PHY_EDGE_ROW_31_Right_31
*797 PHY_EDGE_ROW_32_Left_65
*798 PHY_EDGE_ROW_32_Right_32
*799 PHY_EDGE_ROW_3_Left_36
*800 PHY_EDGE_ROW_3_Right_3
*801 PHY_EDGE_ROW_4_Left_37
*802 PHY_EDGE_ROW_4_Right_4
*803 PHY_EDGE_ROW_5_Left_38
*804 PHY_EDGE_ROW_5_Right_5
*805 PHY_EDGE_ROW_6_Left_39
*806 PHY_EDGE_ROW_6_Right_6
*807 PHY_EDGE_ROW_7_Left_40
*808 PHY_EDGE_ROW_7_Right_7
*809 PHY_EDGE_ROW_8_Left_41
*810 PHY_EDGE_ROW_8_Right_8
*811 PHY_EDGE_ROW_9_Left_42
*812 PHY_EDGE_ROW_9_Right_9
*813 TAP_TAPCELL_ROW_0_66
*814 TAP_TAPCELL_ROW_0_67
*815 TAP_TAPCELL_ROW_0_68
*816 TAP_TAPCELL_ROW_0_69
*817 TAP_TAPCELL_ROW_0_70
*818 TAP_TAPCELL_ROW_0_71
*819 TAP_TAPCELL_ROW_10_100
*820 TAP_TAPCELL_ROW_10_101
*821 TAP_TAPCELL_ROW_10_99
*822 TAP_TAPCELL_ROW_11_102
*823 TAP_TAPCELL_ROW_11_103
*824 TAP_TAPCELL_ROW_11_104
*825 TAP_TAPCELL_ROW_12_105
*826 TAP_TAPCELL_ROW_12_106
*827 TAP_TAPCELL_ROW_12_107
*828 TAP_TAPCELL_ROW_13_108
*829 TAP_TAPCELL_ROW_13_109
*830 TAP_TAPCELL_ROW_13_110
*831 TAP_TAPCELL_ROW_14_111
*832 TAP_TAPCELL_ROW_14_112
*833 TAP_TAPCELL_ROW_14_113
*834 TAP_TAPCELL_ROW_15_114
*835 TAP_TAPCELL_ROW_15_115
*836 TAP_TAPCELL_ROW_15_116
*837 TAP_TAPCELL_ROW_16_117
*838 TAP_TAPCELL_ROW_16_118
*839 TAP_TAPCELL_ROW_16_119
*840 TAP_TAPCELL_ROW_17_120
*841 TAP_TAPCELL_ROW_17_121
*842 TAP_TAPCELL_ROW_17_122
*843 TAP_TAPCELL_ROW_18_123
*844 TAP_TAPCELL_ROW_18_124
*845 TAP_TAPCELL_ROW_18_125
*846 TAP_TAPCELL_ROW_19_126
*847 TAP_TAPCELL_ROW_19_127
*848 TAP_TAPCELL_ROW_19_128
*849 TAP_TAPCELL_ROW_1_72
*850 TAP_TAPCELL_ROW_1_73
*851 TAP_TAPCELL_ROW_1_74
*852 TAP_TAPCELL_ROW_20_129
*853 TAP_TAPCELL_ROW_20_130
*854 TAP_TAPCELL_ROW_20_131
*855 TAP_TAPCELL_ROW_21_132
*856 TAP_TAPCELL_ROW_21_133
*857 TAP_TAPCELL_ROW_21_134
*858 TAP_TAPCELL_ROW_22_135
*859 TAP_TAPCELL_ROW_22_136
*860 TAP_TAPCELL_ROW_22_137
*861 TAP_TAPCELL_ROW_23_138
*862 TAP_TAPCELL_ROW_23_139
*863 TAP_TAPCELL_ROW_23_140
*864 TAP_TAPCELL_ROW_24_141
*865 TAP_TAPCELL_ROW_24_142
*866 TAP_TAPCELL_ROW_24_143
*867 TAP_TAPCELL_ROW_25_144
*868 TAP_TAPCELL_ROW_25_145
*869 TAP_TAPCELL_ROW_25_146
*870 TAP_TAPCELL_ROW_26_147
*871 TAP_TAPCELL_ROW_26_148
*872 TAP_TAPCELL_ROW_26_149
*873 TAP_TAPCELL_ROW_27_150
*874 TAP_TAPCELL_ROW_27_151
*875 TAP_TAPCELL_ROW_27_152
*876 TAP_TAPCELL_ROW_28_153
*877 TAP_TAPCELL_ROW_28_154
*878 TAP_TAPCELL_ROW_28_155
*879 TAP_TAPCELL_ROW_29_156
*880 TAP_TAPCELL_ROW_29_157
*881 TAP_TAPCELL_ROW_29_158
*882 TAP_TAPCELL_ROW_2_75
*883 TAP_TAPCELL_ROW_2_76
*884 TAP_TAPCELL_ROW_2_77
*885 TAP_TAPCELL_ROW_30_159
*886 TAP_TAPCELL_ROW_30_160
*887 TAP_TAPCELL_ROW_30_161
*888 TAP_TAPCELL_ROW_31_162
*889 TAP_TAPCELL_ROW_31_163
*890 TAP_TAPCELL_ROW_31_164
*891 TAP_TAPCELL_ROW_32_165
*892 TAP_TAPCELL_ROW_32_166
*893 TAP_TAPCELL_ROW_32_167
*894 TAP_TAPCELL_ROW_32_168
*895 TAP_TAPCELL_ROW_32_169
*896 TAP_TAPCELL_ROW_32_170
*897 TAP_TAPCELL_ROW_3_78
*898 TAP_TAPCELL_ROW_3_79
*899 TAP_TAPCELL_ROW_3_80
*900 TAP_TAPCELL_ROW_4_81
*901 TAP_TAPCELL_ROW_4_82
*902 TAP_TAPCELL_ROW_4_83
*903 TAP_TAPCELL_ROW_5_84
*904 TAP_TAPCELL_ROW_5_85
*905 TAP_TAPCELL_ROW_5_86
*906 TAP_TAPCELL_ROW_6_87
*907 TAP_TAPCELL_ROW_6_88
*908 TAP_TAPCELL_ROW_6_89
*909 TAP_TAPCELL_ROW_7_90
*910 TAP_TAPCELL_ROW_7_91
*911 TAP_TAPCELL_ROW_7_92
*912 TAP_TAPCELL_ROW_8_93
*913 TAP_TAPCELL_ROW_8_94
*914 TAP_TAPCELL_ROW_8_95
*915 TAP_TAPCELL_ROW_9_96
*916 TAP_TAPCELL_ROW_9_97
*917 TAP_TAPCELL_ROW_9_98
*918 _138_
*919 _139_
*920 _140_
*921 _141_
*922 _142_
*923 _143_
*924 _144_
*925 _145_
*926 _146_
*927 _147_
*928 _148_
*929 _149_
*930 _150_
*931 _151_
*932 _152_
*933 _153_
*934 _154_
*935 _155_
*936 _156_
*937 _157_
*938 _158_
*939 _159_
*940 _160_
*941 _161_
*942 _162_
*943 _163_
*944 _164_
*945 _165_
*946 _166_
*947 _167_
*948 _168_
*949 _169_
*950 _170_
*951 _171_
*952 _172_
*953 _173_
*954 _174_
*955 _175_
*956 _176_
*957 _177_
*958 _178_
*959 _179_
*960 _180_
*961 _181_
*962 _182_
*963 _183_
*964 _184_
*965 _185_
*966 _186_
*967 _187_
*968 _188_
*969 _189_
*970 _190_
*971 _191_
*972 _192_
*973 _193_
*974 _194_
*975 _195_
*976 _196_
*977 _197_
*978 _198_
*979 _199_
*980 _200_
*981 _201_
*982 _202_
*983 _203_
*984 _204_
*985 _205_
*986 _206_
*987 _207_
*988 _208_
*989 _209_
*990 _210_
*991 _211_
*992 _212_
*993 _213_
*994 _214_
*995 _215_
*996 _216_
*997 _217_
*998 _218_
*999 _219_
*1000 _220_
*1001 _221_
*1002 _222_
*1003 _223_
*1004 _224_
*1005 _225_
*1006 _226_
*1007 _227_
*1008 _228_
*1009 _229_
*1010 _230_
*1011 _231_
*1012 _232_
*1013 _233_
*1014 _234_
*1015 _235_
*1016 _236_
*1017 _237_
*1018 _238_
*1019 _239_
*1020 _240_
*1021 _241_
*1022 _242_
*1023 _243_
*1024 _244_
*1025 _245_
*1026 _246_
*1027 _247_
*1028 _248_
*1029 _249_
*1030 _250_
*1031 _251_
*1032 _252_
*1033 _253_
*1034 _254_
*1035 _255_
*1036 _256_
*1037 _257_
*1038 _258_
*1039 _259_
*1040 _260_
*1041 _261_
*1042 _262_
*1043 _263_
*1044 _264_
*1045 _265_
*1046 _266_
*1047 _267_
*1048 _268_
*1049 _269_
*1050 _270_
*1051 _271_
*1052 _272_
*1053 _273_
*1054 _274_
*1055 _275_
*1056 _276_
*1057 _277_
*1058 _278_
*1059 _279_
*1060 _280_
*1061 _281_
*1062 _282_
*1063 _283_
*1064 _284_
*1065 _285_
*1066 _286_
*1067 _287_
*1068 _288_
*1069 _289_
*1070 _290_
*1071 _291_
*1072 _292_
*1073 _293_
*1074 _294_
*1075 _295_
*1076 _296_
*1077 _297_
*1078 _298_
*1079 _299_
*1080 _300_
*1081 _301_
*1082 _302_
*1083 _303_
*1084 _304_
*1085 _305_
*1086 _306_
*1087 _307_
*1088 _308_
*1089 _309_
*1090 clkbuf_0_clk_i
*1091 clkbuf_2_0__f_clk_i
*1092 clkbuf_2_1__f_clk_i
*1093 clkbuf_2_2__f_clk_i
*1094 clkbuf_2_3__f_clk_i
*1095 clkload0
*1096 clkload1
*1097 fanout36
*1098 fanout37
*1099 fanout43
*1100 fanout44
*1101 fanout45
*1102 fanout46
*1103 input1
*1104 input10
*1105 input11
*1106 input12
*1107 input13
*1108 input14
*1109 input15
*1110 input16
*1111 input17
*1112 input18
*1113 input19
*1114 input2
*1115 input20
*1116 input21
*1117 input22
*1118 input23
*1119 input24
*1120 input25
*1121 input26
*1122 input27
*1123 input28
*1124 input29
*1125 input3
*1126 input30
*1127 input31
*1128 input4
*1129 input5
*1130 input6
*1131 input7
*1132 input8
*1133 input9
*1134 max_cap35
*1135 max_cap39
*1136 max_cap40
*1137 max_cap42
*1138 output32
*1139 output33
*1140 output34
*1141 wire38
*1142 wire41

*PORTS
busy_o O
cfg_bits_i[0] I
cfg_bits_i[1] I
cfg_div_i[0] I
cfg_div_i[10] I
cfg_div_i[11] I
cfg_div_i[12] I
cfg_div_i[13] I
cfg_div_i[14] I
cfg_div_i[15] I
cfg_div_i[1] I
cfg_div_i[2] I
cfg_div_i[3] I
cfg_div_i[4] I
cfg_div_i[5] I
cfg_div_i[6] I
cfg_div_i[7] I
cfg_div_i[8] I
cfg_div_i[9] I
cfg_en_i I
cfg_parity_en_i I
cfg_stop_bits_i I
clk_i I
rstn_i I
tx_data_i[0] I
tx_data_i[1] I
tx_data_i[2] I
tx_data_i[3] I
tx_data_i[4] I
tx_data_i[5] I
tx_data_i[6] I
tx_data_i[7] I
tx_o O
tx_ready_o O
tx_valid_i I

*D_NET *3 0.00099477
*CONN
*P busy_o O
*I *1138:Z O *D gf180mcu_fd_sc_mcu7t5v0__dlyb_1
*CAP
1 busy_o 0.000497385
2 *1138:Z 0.000497385
*RES
1 *1138:Z busy_o 12.6659 
*END

*D_NET *4 0.000950916
*CONN
*P cfg_bits_i[0] I
*I *1103:I I *D gf180mcu_fd_sc_mcu7t5v0__dlyb_1
*CAP
1 cfg_bits_i[0] 0.000186619
2 *1103:I 0.000186619
3 *1103:I *1114:I 0.000577678
*RES
1 cfg_bits_i[0] *1103:I 12.0359 
*END

*D_NET *5 0.00138401
*CONN
*P cfg_bits_i[1] I
*I *1114:I I *D gf180mcu_fd_sc_mcu7t5v0__dlyb_1
*CAP
1 cfg_bits_i[1] 0.000403166
2 *1114:I 0.000403166
3 *1114:I *241:38 0
4 *1103:I *1114:I 0.000577678
*RES
1 cfg_bits_i[1] *1114:I 13.3859 
*END

*D_NET *6 0.00222602
*CONN
*P cfg_div_i[0] I
*I *1125:I I *D gf180mcu_fd_sc_mcu7t5v0__dlyb_1
*CAP
1 cfg_div_i[0] 0.000725322
2 *1125:I 0.000725322
3 *1125:I *933:A1 0.000155877
4 *1125:I *943:A1 3.77882e-05
5 *1125:I *1078:CLK 2.38983e-05
6 *1125:I *1079:D 0
7 *1125:I *1106:I 0.000557809
*RES
1 cfg_div_i[0] *1125:I 15.615 
*END

*D_NET *7 0.00325824
*CONN
*P cfg_div_i[10] I
*I *1128:I I *D gf180mcu_fd_sc_mcu7t5v0__dlyb_1
*CAP
1 cfg_div_i[10] 0.000698192
2 *1128:I 0.000698192
3 *1128:I *946:A1 0
4 *1128:I *1111:I 0.00185896
5 *1128:I *1130:I 2.89427e-06
*RES
1 cfg_div_i[10] *1128:I 21.5759 
*END

*D_NET *8 0.00106321
*CONN
*P cfg_div_i[11] I
*I *1129:I I *D gf180mcu_fd_sc_mcu7t5v0__dlyb_1
*CAP
1 cfg_div_i[11] 0.000531605
2 *1129:I 0.000531605
3 *1129:I *1110:I 0
4 *1129:I *1112:I 0
*RES
1 cfg_div_i[11] *1129:I 12.915 
*END

*D_NET *9 0.00278942
*CONN
*P cfg_div_i[12] I
*I *1130:I I *D gf180mcu_fd_sc_mcu7t5v0__dlyb_1
*CAP
1 cfg_div_i[12] 0.00115638
2 *1130:I 0.00115638
3 *1130:I *946:A1 0
4 *1130:I *1131:I 0.000473765
5 *1128:I *1130:I 2.89427e-06
*RES
1 cfg_div_i[12] *1130:I 23.0159 
*END

*D_NET *10 0.00215067
*CONN
*P cfg_div_i[13] I
*I *1131:I I *D gf180mcu_fd_sc_mcu7t5v0__dlyb_1
*CAP
1 cfg_div_i[13] 0.000721951
2 *1131:I 0.000721951
3 *1131:I *931:A1 0
4 *1131:I *1132:I 0.000233008
5 *1130:I *1131:I 0.000473765
*RES
1 cfg_div_i[13] *1131:I 11.9459 
*END

*D_NET *11 0.00333994
*CONN
*P cfg_div_i[14] I
*I *1132:I I *D gf180mcu_fd_sc_mcu7t5v0__dlyb_1
*CAP
1 cfg_div_i[14] 0.000996378
2 *1132:I 0.000996378
3 *1132:I *931:A1 3.38999e-05
4 *1132:I *1133:I 0.00108028
5 *1131:I *1132:I 0.000233008
*RES
1 cfg_div_i[14] *1132:I 23.0159 
*END

*D_NET *12 0.00286081
*CONN
*P cfg_div_i[15] I
*I *1133:I I *D gf180mcu_fd_sc_mcu7t5v0__dlyb_1
*CAP
1 cfg_div_i[15] 0.000890266
2 *1133:I 0.000890266
3 *1132:I *1133:I 0.00108028
*RES
1 cfg_div_i[15] *1133:I 21.6177 
*END

*D_NET *13 0.00122884
*CONN
*P cfg_div_i[1] I
*I *1104:I I *D gf180mcu_fd_sc_mcu7t5v0__dlyb_1
*CAP
1 cfg_div_i[1] 0.000340091
2 *1104:I 0.000340091
3 *1104:I *1105:I 0.00054866
4 *1104:I *1108:I 0
*RES
1 cfg_div_i[1] *1104:I 12.735 
*END

*D_NET *14 0.00192505
*CONN
*P cfg_div_i[2] I
*I *1105:I I *D gf180mcu_fd_sc_mcu7t5v0__dlyb_1
*CAP
1 cfg_div_i[2] 0.000200352
2 *1105:I 0.000200352
3 *1105:I *1106:I 0.000975689
4 *1104:I *1105:I 0.00054866
*RES
1 cfg_div_i[2] *1105:I 13.455 
*END

*D_NET *15 0.00266127
*CONN
*P cfg_div_i[3] I
*I *1106:I I *D gf180mcu_fd_sc_mcu7t5v0__dlyb_1
*CAP
1 cfg_div_i[3] 0.000563887
2 *1106:I 0.000563887
3 *1106:I *1078:CLK 0
4 *1106:I *197:83 0
5 *1105:I *1106:I 0.000975689
6 *1125:I *1106:I 0.000557809
*RES
1 cfg_div_i[3] *1106:I 15.795 
*END

*D_NET *16 0.00136125
*CONN
*P cfg_div_i[4] I
*I *1107:I I *D gf180mcu_fd_sc_mcu7t5v0__dlyb_1
*CAP
1 cfg_div_i[4] 0.000402335
2 *1107:I 0.000402335
3 *1107:I *1109:I 0.000556577
4 *1107:I *1110:I 0
*RES
1 cfg_div_i[4] *1107:I 13.275 
*END

*D_NET *17 0.000911945
*CONN
*P cfg_div_i[5] I
*I *1108:I I *D gf180mcu_fd_sc_mcu7t5v0__dlyb_1
*CAP
1 cfg_div_i[5] 0.000455973
2 *1108:I 0.000455973
3 *1108:I *1109:I 0
4 *1104:I *1108:I 0
*RES
1 cfg_div_i[5] *1108:I 12.555 
*END

*D_NET *18 0.000929059
*CONN
*P cfg_div_i[6] I
*I *1109:I I *D gf180mcu_fd_sc_mcu7t5v0__dlyb_1
*CAP
1 cfg_div_i[6] 0.000186241
2 *1109:I 0.000186241
3 *1107:I *1109:I 0.000556577
4 *1108:I *1109:I 0
*RES
1 cfg_div_i[6] *1109:I 11.925 
*END

*D_NET *19 0.00107735
*CONN
*P cfg_div_i[7] I
*I *1110:I I *D gf180mcu_fd_sc_mcu7t5v0__dlyb_1
*CAP
1 cfg_div_i[7] 0.000538674
2 *1110:I 0.000538674
3 *1107:I *1110:I 0
4 *1129:I *1110:I 0
*RES
1 cfg_div_i[7] *1110:I 12.915 
*END

*D_NET *20 0.00370073
*CONN
*P cfg_div_i[8] I
*I *1111:I I *D gf180mcu_fd_sc_mcu7t5v0__dlyb_1
*CAP
1 cfg_div_i[8] 0.000920884
2 *1111:I 0.000920884
3 *1111:I *938:A1 0
4 *1111:I *946:A1 0
5 *1128:I *1111:I 0.00185896
*RES
1 cfg_div_i[8] *1111:I 23.0159 
*END

*D_NET *21 0.000933656
*CONN
*P cfg_div_i[9] I
*I *1112:I I *D gf180mcu_fd_sc_mcu7t5v0__dlyb_1
*CAP
1 cfg_div_i[9] 0.000466828
2 *1112:I 0.000466828
3 *1129:I *1112:I 0
*RES
1 cfg_div_i[9] *1112:I 12.375 
*END

*D_NET *22 0.00214556
*CONN
*P cfg_en_i I
*I *1113:I I *D gf180mcu_fd_sc_mcu7t5v0__dlyb_1
*CAP
1 cfg_en_i 0.000176777
2 *1113:I 0.000176777
3 *1113:I tx_ready_o 0.000177559
4 *1113:I *1115:I 0.00105896
5 *1113:I *1116:I 0.000555479
6 *1113:I *213:10 0
*RES
1 cfg_en_i *1113:I 13.7459 
*END

*D_NET *23 0.00249286
*CONN
*P cfg_parity_en_i I
*I *1115:I I *D gf180mcu_fd_sc_mcu7t5v0__dlyb_1
*CAP
1 cfg_parity_en_i 0.00071695
2 *1115:I 0.00071695
3 *1113:I *1115:I 0.00105896
*RES
1 cfg_parity_en_i *1115:I 15.9959 
*END

*D_NET *24 0.00152085
*CONN
*P cfg_stop_bits_i I
*I *1116:I I *D gf180mcu_fd_sc_mcu7t5v0__dlyb_1
*CAP
1 cfg_stop_bits_i 0.000120541
2 *1116:I 0.000120541
3 *1116:I tx_ready_o 0.00072429
4 *1116:I *213:10 0
5 *1113:I *1116:I 0.000555479
*RES
1 cfg_stop_bits_i *1116:I 12.6659 
*END

*D_NET *25 0.0123756
*CONN
*P clk_i I
*I *1090:I I *D gf180mcu_fd_sc_mcu7t5v0__clkbuf_16
*CAP
1 clk_i 0.00472451
2 *1090:I 9.09579e-05
3 *25:18 0.00481547
4 *1090:I *950:A1 0
5 *1090:I *950:A4 8.91159e-05
6 *1090:I *951:A3 4.73474e-05
7 *25:18 *937:A2 0.000182196
8 *25:18 *946:A1 0.000303707
9 *25:18 *950:A3 9.70628e-05
10 *25:18 *950:A4 0.000314654
11 *25:18 *951:A1 0.000117246
12 *25:18 *951:A2 0.000160943
13 *25:18 *951:A3 0.000182299
14 *25:18 *983:A1 0
15 *25:18 *993:B 1.23607e-05
16 *25:18 *1077:RN 3.97987e-05
17 *25:18 *105:14 0
18 *25:18 *182:16 0.000254217
19 *25:18 *183:17 0.000423176
20 *25:18 *193:34 0
21 *25:18 *199:52 0
22 *25:18 *240:25 0.00011861
23 *25:18 *240:44 0.000401887
24 *25:18 *240:48 0
25 *25:18 *240:61 0
26 *25:18 *240:65 0
*RES
1 clk_i *25:18 41.535 
2 *25:18 *1090:I 5.31 
*END

*D_NET *26 0.00182593
*CONN
*P rstn_i I
*I *1117:I I *D gf180mcu_fd_sc_mcu7t5v0__dlyb_1
*CAP
1 rstn_i 0.000865215
2 *1117:I 0.000865215
3 *1117:I *1071:RN 0
4 *1117:I *1100:I 0
5 *1117:I *1102:I 0
6 *1117:I *58:10 9.55009e-05
*RES
1 rstn_i *1117:I 15.5459 
*END

*D_NET *27 0.00320406
*CONN
*P tx_data_i[0] I
*I *1118:I I *D gf180mcu_fd_sc_mcu7t5v0__dlyb_1
*CAP
1 tx_data_i[0] 0.000685906
2 *1118:I 0.000685906
3 *1118:I *1122:I 0.000508579
4 *1118:I *1123:I 0.000145949
5 *1118:I *1124:I 0.000604092
6 *1118:I *1126:I 0.000573626
*RES
1 tx_data_i[0] *1118:I 21.285 
*END

*D_NET *28 0.0016399
*CONN
*P tx_data_i[1] I
*I *1119:I I *D gf180mcu_fd_sc_mcu7t5v0__dlyb_1
*CAP
1 tx_data_i[1] 0.000819952
2 *1119:I 0.000819952
3 *1119:I *1121:I 0
*RES
1 tx_data_i[1] *1119:I 10.755 
*END

*D_NET *29 0.00164676
*CONN
*P tx_data_i[2] I
*I *1120:I I *D gf180mcu_fd_sc_mcu7t5v0__dlyb_1
*CAP
1 tx_data_i[2] 0.000601246
2 *1120:I 0.000601246
3 *1120:I *1121:I 0.000444269
*RES
1 tx_data_i[2] *1120:I 10.395 
*END

*D_NET *30 0.00220589
*CONN
*P tx_data_i[3] I
*I *1121:I I *D gf180mcu_fd_sc_mcu7t5v0__dlyb_1
*CAP
1 tx_data_i[3] 0.000869467
2 *1121:I 0.000869467
3 *1121:I *1038:I0 1.07374e-05
4 *1121:I *1038:S 1.19491e-05
5 *1119:I *1121:I 0
6 *1120:I *1121:I 0.000444269
*RES
1 tx_data_i[3] *1121:I 12.195 
*END

*D_NET *31 0.00476533
*CONN
*P tx_data_i[4] I
*I *1122:I I *D gf180mcu_fd_sc_mcu7t5v0__dlyb_1
*CAP
1 tx_data_i[4] 0.000594972
2 *1122:I 0.000594972
3 *1122:I *1042:A1 0.00050482
4 *1122:I *1123:I 0.000357174
5 *1122:I *1124:I 0.000812581
6 *1122:I *1126:I 0.00139223
7 *1118:I *1122:I 0.000508579
*RES
1 tx_data_i[4] *1122:I 23.625 
*END

*D_NET *32 0.00296304
*CONN
*P tx_data_i[5] I
*I *1123:I I *D gf180mcu_fd_sc_mcu7t5v0__dlyb_1
*CAP
1 tx_data_i[5] 0.00102104
2 *1123:I 0.00102104
3 *1123:I *1037:I1 2.31089e-05
4 *1123:I *1039:I0 0
5 *1123:I *1042:A1 5.77408e-05
6 *1123:I *1124:I 0.000239918
7 *1123:I *1126:I 9.70753e-05
8 *1118:I *1123:I 0.000145949
9 *1122:I *1123:I 0.000357174
*RES
1 tx_data_i[5] *1123:I 22.545 
*END

*D_NET *33 0.00370477
*CONN
*P tx_data_i[6] I
*I *1124:I I *D gf180mcu_fd_sc_mcu7t5v0__dlyb_1
*CAP
1 tx_data_i[6] 0.000718021
2 *1124:I 0.000718021
3 *1124:I *1126:I 0.000612137
4 *1118:I *1124:I 0.000604092
5 *1122:I *1124:I 0.000812581
6 *1123:I *1124:I 0.000239918
*RES
1 tx_data_i[6] *1124:I 23.445 
*END

*D_NET *34 0.00536609
*CONN
*P tx_data_i[7] I
*I *1126:I I *D gf180mcu_fd_sc_mcu7t5v0__dlyb_1
*CAP
1 tx_data_i[7] 0.000999732
2 *1126:I 0.000999732
3 *1126:I *1037:I1 1.80179e-05
4 *1126:I *1042:A1 0.000103065
5 *1126:I *1067:SETN 0.000570481
6 *1118:I *1126:I 0.000573626
7 *1122:I *1126:I 0.00139223
8 *1123:I *1126:I 9.70753e-05
9 *1124:I *1126:I 0.000612137
*RES
1 tx_data_i[7] *1126:I 25.245 
*END

*D_NET *35 0.00109668
*CONN
*P tx_o O
*I *1139:Z O *D gf180mcu_fd_sc_mcu7t5v0__dlyb_1
*CAP
1 tx_o 0.000548342
2 *1139:Z 0.000548342
*RES
1 *1139:Z tx_o 13.0259 
*END

*D_NET *36 0.0016176
*CONN
*P tx_ready_o O
*I *1140:Z O *D gf180mcu_fd_sc_mcu7t5v0__dlyb_1
*CAP
1 tx_ready_o 0.000357877
2 *1140:Z 0.000357877
3 tx_ready_o *213:10 0
4 *1113:I tx_ready_o 0.000177559
5 *1116:I tx_ready_o 0.00072429
*RES
1 *1140:Z tx_ready_o 13.3859 
*END

*D_NET *37 0.00112789
*CONN
*P tx_valid_i I
*I *1127:I I *D gf180mcu_fd_sc_mcu7t5v0__dlyb_1
*CAP
1 tx_valid_i 0.000563944
2 *1127:I 0.000563944
3 *1127:I *241:38 0
*RES
1 tx_valid_i *1127:I 13.2059 
*END

*D_NET *38 0.0123581
*CONN
*I *1006:A1 I *D gf180mcu_fd_sc_mcu7t5v0__nand2_1
*I *1004:A1 I *D gf180mcu_fd_sc_mcu7t5v0__aoi22_1
*I *1002:A1 I *D gf180mcu_fd_sc_mcu7t5v0__nand2_1
*I *919:I I *D gf180mcu_fd_sc_mcu7t5v0__clkinv_1
*I *1001:A1 I *D gf180mcu_fd_sc_mcu7t5v0__nand2_1
*I *1007:A2 I *D gf180mcu_fd_sc_mcu7t5v0__nor3_1
*I *1026:A2 I *D gf180mcu_fd_sc_mcu7t5v0__nor4_1
*I *928:A2 I *D gf180mcu_fd_sc_mcu7t5v0__nor3_1
*I *1058:Q O *D gf180mcu_fd_sc_mcu7t5v0__dffrnq_1
*CAP
1 *1006:A1 0.00022837
2 *1004:A1 0
3 *1002:A1 0.000179685
4 *919:I 0.000108557
5 *1001:A1 0
6 *1007:A2 0.000238948
7 *1026:A2 0.000116347
8 *928:A2 0
9 *1058:Q 0
10 *38:75 0.000374214
11 *38:51 0.000150879
12 *38:38 0.000281269
13 *38:36 0.000317922
14 *38:25 0.000354303
15 *38:16 0.000441476
16 *38:6 0.000555284
17 *919:I *1001:A2 9.84908e-05
18 *919:I *1004:A2 1.48164e-05
19 *919:I *40:45 1.5706e-05
20 *919:I *74:14 7.10237e-05
21 *919:I *74:51 0
22 *1002:A1 *1002:A2 7.55765e-06
23 *1002:A1 *1004:B1 0.000192183
24 *1002:A1 *1004:B2 0
25 *1002:A1 *241:38 0.000280356
26 *1006:A1 *925:I 9.4913e-06
27 *1006:A1 *1006:A2 0.000139597
28 *1006:A1 *1012:A2 0.000106536
29 *1006:A1 *1019:A1 2.30981e-05
30 *1006:A1 *1058:D 0.000234541
31 *1006:A1 *1137:I 0.000127778
32 *1006:A1 *241:38 1.36885e-05
33 *1007:A2 *1001:A2 1.1746e-06
34 *1007:A2 *1003:A1 0.000320055
35 *1007:A2 *1003:A2 0.000768615
36 *1007:A2 *1007:A1 4.15457e-05
37 *1007:A2 *1007:A3 0.000329387
38 *1007:A2 *74:14 0.000297859
39 *1026:A2 *1026:A1 3.46245e-05
40 *1026:A2 *1026:A4 2.74163e-05
41 *1026:A2 *1056:B 0.000240988
42 *1026:A2 *1056:C 2.46572e-06
43 *38:16 *925:I 7.08457e-06
44 *38:16 *930:A1 0.000183662
45 *38:16 *1005:C 0.000428433
46 *38:16 *1058:D 0.000445479
47 *38:16 *1137:I 0.000322768
48 *38:16 *39:40 0.000167278
49 *38:16 *40:75 0.000215887
50 *38:16 *82:12 3.01487e-05
51 *38:16 *139:10 6.16184e-05
52 *38:25 *925:I 0
53 *38:25 *1056:A1 0.000216087
54 *38:25 *1056:A2 2.63343e-05
55 *38:25 *39:34 0.000673134
56 *38:25 *39:40 3.42509e-05
57 *38:25 *79:8 0.000830438
58 *38:36 *927:A2 0.00014089
59 *38:36 *1056:A2 0.000148806
60 *38:36 *39:34 4.73908e-05
61 *38:51 *1001:A2 0.000231442
62 *38:51 *1003:A1 1.0415e-05
63 *38:51 *40:54 1.10228e-05
64 *38:51 *74:14 0.000335306
65 *38:75 *927:A2 2.08042e-05
66 *38:75 *1003:A1 0.000219821
67 *38:75 *1004:A2 0.00080031
68 *38:75 *40:65 3.0177e-06
*RES
1 *1058:Q *38:6 9 
2 *38:6 *38:16 13.59 
3 *38:16 *928:A2 9 
4 *38:16 *38:25 3.87 
5 *38:25 *1026:A2 9.99 
6 *38:25 *38:36 1.35 
7 *38:36 *38:38 4.5 
8 *38:38 *1007:A2 8.37 
9 *38:38 *38:51 0.99 
10 *38:51 *1001:A1 4.5 
11 *38:51 *919:I 14.58 
12 *38:36 *38:75 7.2 
13 *38:75 *1002:A1 6.84 
14 *38:75 *1004:A1 4.5 
15 *38:6 *1006:A1 11.25 
*END

*D_NET *39 0.0112198
*CONN
*I *1016:A3 I *D gf180mcu_fd_sc_mcu7t5v0__nand4_1
*I *1022:A2 I *D gf180mcu_fd_sc_mcu7t5v0__nand3_1
*I *920:I I *D gf180mcu_fd_sc_mcu7t5v0__clkinv_1
*I *927:A2 I *D gf180mcu_fd_sc_mcu7t5v0__nor2_1
*I *928:A3 I *D gf180mcu_fd_sc_mcu7t5v0__nor3_1
*I *930:A2 I *D gf180mcu_fd_sc_mcu7t5v0__aoi21_1
*I *1005:A2 I *D gf180mcu_fd_sc_mcu7t5v0__aoi211_1
*I *1059:Q O *D gf180mcu_fd_sc_mcu7t5v0__dffrnq_1
*CAP
1 *1016:A3 0
2 *1022:A2 0
3 *920:I 0
4 *927:A2 0.000106919
5 *928:A3 0
6 *930:A2 0.000469364
7 *1005:A2 0
8 *1059:Q 0.000441639
9 *39:40 0.000880212
10 *39:34 0.000545642
11 *39:32 0.000595599
12 *39:26 0.000538947
13 *39:20 0.00043572
14 *39:12 0.000692297
15 *927:A2 *40:65 8.29339e-05
16 *927:A2 *40:67 7.10862e-05
17 *930:A2 *930:A1 5.83701e-05
18 *930:A2 *1089:RN 0.000107132
19 *930:A2 *40:75 4.6613e-06
20 *930:A2 *83:12 0.000286386
21 *930:A2 *241:59 4.34467e-06
22 *39:12 *921:I 5.15895e-05
23 *39:12 *1014:A1 5.97457e-06
24 *39:12 *1014:A2 0.000233791
25 *39:12 *1014:A3 0.000108777
26 *39:12 *1014:A4 2.14748e-05
27 *39:12 *1016:A4 0.00035873
28 *39:12 *1022:A3 0.000240871
29 *39:12 *1024:B 1.38253e-05
30 *39:12 *40:14 6.31783e-05
31 *39:12 *74:51 2.08301e-05
32 *39:12 *178:38 5.75174e-05
33 *39:20 *1016:A4 1.07374e-05
34 *39:20 *1022:A3 0.000974129
35 *39:20 *74:51 0.000271275
36 *39:20 *178:25 5.59262e-05
37 *39:20 *226:14 0
38 *39:20 *241:38 0.000294153
39 *39:26 *1020:A1 0.000236567
40 *39:26 *1022:A1 3.46221e-05
41 *39:26 *74:14 3.22122e-05
42 *39:32 *1026:A4 1.4382e-06
43 *39:32 *1056:A2 4.78286e-05
44 *39:32 *1056:B 0.000161479
45 *39:32 *1056:C 0.000161479
46 *39:32 *74:14 0.000118414
47 *39:34 *1056:B 0.000295931
48 *39:34 *40:67 1.18477e-05
49 *39:34 *40:69 0.000516153
50 *39:40 *925:I 0
51 *39:40 *40:69 0.000125882
52 *39:40 *40:75 0.0002882
53 *39:40 *195:8 0
54 *38:16 *39:40 0.000167278
55 *38:25 *39:34 0.000673134
56 *38:25 *39:40 3.42509e-05
57 *38:36 *927:A2 0.00014089
58 *38:36 *39:34 4.73908e-05
59 *38:75 *927:A2 2.08042e-05
*RES
1 *1059:Q *39:12 9.18 
2 *39:12 *39:20 12.78 
3 *39:20 *39:26 1.89 
4 *39:26 *39:32 7.56 
5 *39:32 *39:34 4.05 
6 *39:34 *39:40 8.28 
7 *39:40 *1005:A2 4.5 
8 *39:40 *930:A2 8.37 
9 *39:34 *928:A3 9 
10 *39:32 *927:A2 10.17 
11 *39:26 *920:I 4.5 
12 *39:20 *1022:A2 4.5 
13 *39:12 *1016:A3 4.5 
*END

*D_NET *40 0.0176737
*CONN
*I *1014:A1 I *D gf180mcu_fd_sc_mcu7t5v0__nand4_1
*I *1007:A1 I *D gf180mcu_fd_sc_mcu7t5v0__nor3_1
*I *1026:A1 I *D gf180mcu_fd_sc_mcu7t5v0__nor4_1
*I *928:A1 I *D gf180mcu_fd_sc_mcu7t5v0__nor3_1
*I *930:A1 I *D gf180mcu_fd_sc_mcu7t5v0__aoi21_1
*I *1005:A1 I *D gf180mcu_fd_sc_mcu7t5v0__aoi211_1
*I *1003:C I *D gf180mcu_fd_sc_mcu7t5v0__aoi211_1
*I *927:A1 I *D gf180mcu_fd_sc_mcu7t5v0__nor2_1
*I *918:I I *D gf180mcu_fd_sc_mcu7t5v0__clkinv_1
*I *1060:Q O *D gf180mcu_fd_sc_mcu7t5v0__dffrnq_1
*CAP
1 *1014:A1 2.92259e-05
2 *1007:A1 0.000135288
3 *1026:A1 1.97725e-05
4 *928:A1 7.35119e-05
5 *930:A1 0.000326134
6 *1005:A1 0
7 *1003:C 3.53154e-05
8 *927:A1 0
9 *918:I 0.000287156
10 *1060:Q 0.000532336
11 *40:75 0.000634903
12 *40:69 0.000875102
13 *40:67 0.000582907
14 *40:65 0.000337053
15 *40:54 0.000291909
16 *40:45 0.00143719
17 *40:16 0.0015992
18 *40:14 0.000561562
19 *918:I *1021:A1 6.17613e-06
20 *918:I *1060:RN 0
21 *918:I *148:14 5.53168e-05
22 *918:I *177:8 0.000390584
23 *918:I *177:21 0.000508781
24 *928:A1 *1012:A1 4.1839e-05
25 *928:A1 *1137:I 3.22348e-05
26 *928:A1 *82:12 0.000163559
27 *930:A1 *930:B 0.00046835
28 *930:A1 *1005:C 3.85076e-05
29 *930:A1 *1058:D 4.71736e-05
30 *930:A1 *1058:RN 2.60524e-05
31 *930:A1 *83:12 5.68787e-05
32 *930:A1 *241:44 0.000290674
33 *1003:C *1003:A1 1.56374e-05
34 *1003:C *1004:B2 9.90941e-05
35 *1003:C *1007:A3 0.000169515
36 *1007:A1 *1003:A2 0.000324664
37 *1007:A1 *1011:B 3.22122e-05
38 *1007:A1 *1057:B 0.00103163
39 *1007:A1 *74:14 9.30128e-05
40 *1014:A1 *178:38 5.97457e-06
41 *1026:A1 *1056:C 9.30128e-05
42 *40:14 *921:I 0
43 *40:14 *1024:B 0.000169524
44 *40:14 *1060:D 0
45 *40:14 *1060:RN 0.000391051
46 *40:14 *213:10 8.69576e-05
47 *40:45 *955:A1 0.000784627
48 *40:45 *1001:A2 4.1854e-05
49 *40:45 *1003:A1 0.00013372
50 *40:45 *1004:A2 0.000363025
51 *40:45 *1021:A1 2.65734e-05
52 *40:45 *1060:RN 0
53 *40:45 *1138:I 7.71821e-06
54 *40:45 *1139:I 3.68874e-05
55 *40:45 *74:51 0.000938798
56 *40:45 *178:25 2.5373e-05
57 *40:45 *213:10 0
58 *40:45 *241:38 0
59 *40:54 *1003:A1 0.000257913
60 *40:54 *1004:B2 0.00010372
61 *40:54 *178:25 0
62 *40:65 *1003:A1 2.20108e-05
63 *40:65 *1026:A3 9.01083e-06
64 *40:65 *1072:RN 0
65 *40:65 *74:29 0.000292006
66 *40:67 *1026:A3 4.00424e-05
67 *40:69 *1026:A3 0.000106141
68 *40:69 *1056:B 0.000301265
69 *40:69 *1072:D 0
70 *40:75 *82:12 5.22543e-05
71 *919:I *40:45 1.5706e-05
72 *927:A2 *40:65 8.29339e-05
73 *927:A2 *40:67 7.10862e-05
74 *930:A2 *930:A1 5.83701e-05
75 *930:A2 *40:75 4.6613e-06
76 *1007:A2 *1007:A1 4.15457e-05
77 *1026:A2 *1026:A1 3.46245e-05
78 *38:16 *930:A1 0.000183662
79 *38:16 *40:75 0.000215887
80 *38:51 *40:54 1.10228e-05
81 *38:75 *40:65 3.0177e-06
82 *39:12 *1014:A1 5.97457e-06
83 *39:12 *40:14 6.31783e-05
84 *39:34 *40:67 1.18477e-05
85 *39:34 *40:69 0.000516153
86 *39:40 *40:69 0.000125882
87 *39:40 *40:75 0.0002882
*RES
1 *1060:Q *40:14 18.09 
2 *40:14 *40:16 4.5 
3 *40:16 *918:I 11.79 
4 *40:16 *40:45 33.57 
5 *40:45 *927:A1 4.5 
6 *40:45 *40:54 1.44 
7 *40:54 *1003:C 5.13 
8 *40:54 *40:65 5.67 
9 *40:65 *40:67 0.63 
10 *40:67 *40:69 4.77 
11 *40:69 *40:75 7.38 
12 *40:75 *1005:A1 4.5 
13 *40:75 *930:A1 17.37 
14 *40:69 *928:A1 9.72 
15 *40:67 *1026:A1 9.27 
16 *40:65 *1007:A1 12.06 
17 *40:14 *1014:A1 4.77 
*END

*D_NET *41 0.000669556
*CONN
*I *1073:D I *D gf180mcu_fd_sc_mcu7t5v0__dffrnq_1
*I *957:ZN O *D gf180mcu_fd_sc_mcu7t5v0__nor2_1
*CAP
1 *1073:D 0.000143997
2 *957:ZN 0.000143997
3 *1073:D *957:A1 0.000381562
4 *1073:D *197:83 0
*RES
1 *957:ZN *1073:D 10.44 
*END

*D_NET *42 0.00125953
*CONN
*I *1083:D I *D gf180mcu_fd_sc_mcu7t5v0__dffrnq_1
*I *986:ZN O *D gf180mcu_fd_sc_mcu7t5v0__nor3_1
*CAP
1 *1083:D 7.70338e-05
2 *986:ZN 7.70338e-05
3 *1083:D *986:A2 8.68281e-06
4 *1083:D *180:10 0.000247389
5 *1083:D *180:12 0.000229402
6 *1083:D *180:16 0.000101615
7 *1083:D *199:48 0.000346434
8 *1083:D *199:52 0.000171937
*RES
1 *986:ZN *1083:D 19.62 
*END

*D_NET *43 0.00111043
*CONN
*I *1084:D I *D gf180mcu_fd_sc_mcu7t5v0__dffrnq_1
*I *990:ZN O *D gf180mcu_fd_sc_mcu7t5v0__nor3_1
*CAP
1 *1084:D 0.00049814
2 *990:ZN 0.00049814
3 *1084:D *979:A2 5.89295e-05
4 *1084:D *983:A3 4.76678e-05
5 *1084:D *1084:CLK 7.55765e-06
*RES
1 *990:ZN *1084:D 21.42 
*END

*D_NET *44 0.00127355
*CONN
*I *1085:D I *D gf180mcu_fd_sc_mcu7t5v0__dffrnq_1
*I *992:ZN O *D gf180mcu_fd_sc_mcu7t5v0__nor2_1
*CAP
1 *1085:D 0.000366971
2 *992:ZN 0.000366971
3 *1085:D *938:A1 0.000200462
4 *1085:D *951:A4 4.78445e-05
5 *1085:D *992:A2 0.000112586
6 *1085:D *231:23 0.00015547
7 *1085:D *236:12 2.32439e-05
*RES
1 *992:ZN *1085:D 12.6 
*END

*D_NET *45 0.00230454
*CONN
*I *1086:D I *D gf180mcu_fd_sc_mcu7t5v0__dffrnq_1
*I *995:ZN O *D gf180mcu_fd_sc_mcu7t5v0__nor3_1
*CAP
1 *1086:D 0.00041854
2 *995:ZN 0.00041854
3 *1086:D *931:A2 1.0415e-05
4 *1086:D *998:A1 1.18477e-05
5 *1086:D *998:A2 6.26041e-05
6 *1086:D *999:A1 9.08505e-05
7 *1086:D *999:A2 0.00010717
8 *1086:D *1000:A3 0.000133222
9 *1086:D *1086:RN 1.84866e-05
10 *1086:D *132:19 0.000947956
11 *1086:D *132:23 8.49143e-05
*RES
1 *995:ZN *1086:D 22.5 
*END

*D_NET *46 0.000910843
*CONN
*I *1087:D I *D gf180mcu_fd_sc_mcu7t5v0__dffrnq_1
*I *997:ZN O *D gf180mcu_fd_sc_mcu7t5v0__aoi21_1
*CAP
1 *1087:D 0.000207226
2 *997:ZN 0.000207226
3 *1087:D *936:A1 0
4 *1087:D *956:A2 0
5 *1087:D *997:A1 0.000168693
6 *1087:D *997:A2 0.000207732
7 *1087:D *1097:I 0.000119966
*RES
1 *997:ZN *1087:D 10.8 
*END

*D_NET *47 0.000847631
*CONN
*I *1088:D I *D gf180mcu_fd_sc_mcu7t5v0__dffrnq_1
*I *1000:ZN O *D gf180mcu_fd_sc_mcu7t5v0__nor3_1
*CAP
1 *1088:D 0.000128717
2 *1000:ZN 0.000128717
3 *1088:D *931:A2 9.34115e-05
4 *1088:D *1000:A3 0.000496785
*RES
1 *1000:ZN *1088:D 10.71 
*END

*D_NET *48 0.00188237
*CONN
*I *1074:D I *D gf180mcu_fd_sc_mcu7t5v0__dffrnq_1
*I *959:ZN O *D gf180mcu_fd_sc_mcu7t5v0__nor2_1
*CAP
1 *1074:D 0.000745198
2 *959:ZN 0.000745198
3 *1074:D *1074:CLK 0
4 *1074:D *196:52 0.000391974
*RES
1 *959:ZN *1074:D 24.3 
*END

*D_NET *49 0.000556826
*CONN
*I *1075:D I *D gf180mcu_fd_sc_mcu7t5v0__dffrnq_1
*I *962:ZN O *D gf180mcu_fd_sc_mcu7t5v0__nor3_1
*CAP
1 *1075:D 9.33597e-05
2 *962:ZN 9.33597e-05
3 *1075:D *109:8 4.6613e-06
4 *1075:D *188:23 0.000365445
*RES
1 *962:ZN *1075:D 9.99 
*END

*D_NET *50 0.00138517
*CONN
*I *1076:D I *D gf180mcu_fd_sc_mcu7t5v0__dffrnq_1
*I *966:ZN O *D gf180mcu_fd_sc_mcu7t5v0__nor3_1
*CAP
1 *1076:D 0.000639142
2 *966:ZN 0.000639142
3 *1076:D *966:A3 4.8063e-05
4 *1076:D *1073:CLK 5.88261e-05
5 *1076:D *1075:CLK 0
*RES
1 *966:ZN *1076:D 13.05 
*END

*D_NET *51 0.000805627
*CONN
*I *1077:D I *D gf180mcu_fd_sc_mcu7t5v0__dffrnq_1
*I *968:ZN O *D gf180mcu_fd_sc_mcu7t5v0__nor2_1
*CAP
1 *1077:D 9.0833e-05
2 *968:ZN 9.0833e-05
3 *1077:D *967:A2 6.02974e-05
4 *1077:D *968:A2 0.000269243
5 *1077:D *112:10 0.000294421
*RES
1 *968:ZN *1077:D 10.26 
*END

*D_NET *52 0.00226076
*CONN
*I *1078:D I *D gf180mcu_fd_sc_mcu7t5v0__dffrnq_1
*I *972:ZN O *D gf180mcu_fd_sc_mcu7t5v0__nor3_1
*CAP
1 *1078:D 0.000674788
2 *972:ZN 0.000674788
3 *1078:D *932:A1 0.00021552
4 *1078:D *933:A1 0
5 *1078:D *973:A1 8.96792e-05
6 *1078:D *1078:CLK 7.55765e-06
7 *1078:D *116:18 0.000463393
8 *1078:D *190:12 0.000135033
*RES
1 *972:ZN *1078:D 24.12 
*END

*D_NET *53 0.00250909
*CONN
*I *1079:D I *D gf180mcu_fd_sc_mcu7t5v0__dffrnq_1
*I *974:ZN O *D gf180mcu_fd_sc_mcu7t5v0__nor2_1
*CAP
1 *1079:D 0.000490431
2 *974:ZN 0.000490431
3 *1079:D *939:A1 1.75747e-05
4 *1079:D *949:A2 0
5 *1079:D *957:A2 4.44719e-05
6 *1079:D *1078:RN 7.93835e-05
7 *1079:D *179:14 0.00121728
8 *1079:D *238:105 0.000169524
9 *1125:I *1079:D 0
*RES
1 *974:ZN *1079:D 22.86 
*END

*D_NET *54 0.000485721
*CONN
*I *1080:D I *D gf180mcu_fd_sc_mcu7t5v0__dffrnq_1
*I *978:ZN O *D gf180mcu_fd_sc_mcu7t5v0__nor3_1
*CAP
1 *1080:D 0.000132547
2 *978:ZN 0.000132547
3 *1080:D *948:A2 0.000172267
4 *1080:D *978:A3 4.83607e-05
*RES
1 *978:ZN *1080:D 10.17 
*END

*D_NET *55 0.000477257
*CONN
*I *1081:D I *D gf180mcu_fd_sc_mcu7t5v0__dffrnq_1
*I *980:ZN O *D gf180mcu_fd_sc_mcu7t5v0__nor2_1
*CAP
1 *1081:D 0.000238628
2 *980:ZN 0.000238628
3 *1081:D *1081:CLK 0
*RES
1 *980:ZN *1081:D 10.62 
*END

*D_NET *56 0.000401433
*CONN
*I *1082:D I *D gf180mcu_fd_sc_mcu7t5v0__dffrnq_1
*I *983:ZN O *D gf180mcu_fd_sc_mcu7t5v0__nor3_1
*CAP
1 *1082:D 0.000155986
2 *983:ZN 0.000155986
3 *1082:D *980:A1 0
4 *1082:D *1081:CLK 2.68548e-05
5 *1082:D *199:61 6.26074e-05
6 *1082:D *230:104 0
*RES
1 *983:ZN *1082:D 10.26 
*END

*D_NET *57 0.000396781
*CONN
*I *1089:D I *D gf180mcu_fd_sc_mcu7t5v0__dffrnq_1
*I *954:Z O *D gf180mcu_fd_sc_mcu7t5v0__and2_1
*CAP
1 *1089:D 0.00019839
2 *954:Z 0.00019839
3 *1089:D *1074:CLK 0
4 *1089:D *200:16 0
*RES
1 *954:Z *1089:D 10.26 
*END

*D_NET *58 0.00553443
*CONN
*I *1010:B I *D gf180mcu_fd_sc_mcu7t5v0__oai21_1
*I *924:I I *D gf180mcu_fd_sc_mcu7t5v0__clkinv_1
*I *1071:Q O *D gf180mcu_fd_sc_mcu7t5v0__dffrnq_1
*CAP
1 *1010:B 0.000359768
2 *924:I 0.000273033
3 *1071:Q 0.000532588
4 *58:10 0.00116539
5 *924:I *1053:A1 1.99655e-05
6 *924:I *239:19 9.41463e-06
7 *924:I *239:21 5.69699e-06
8 *924:I *239:23 3.77684e-06
9 *1010:B *1008:A1 0.00022444
10 *1010:B *1008:A2 0.000924538
11 *1010:B *1072:RN 7.01651e-05
12 *1010:B *239:76 7.65946e-06
13 *1010:B *241:8 3.01487e-05
14 *1010:B *241:38 0.00100824
15 *1010:B *249:8 0.000175108
16 *1010:B *249:21 0.000296484
17 *58:10 *1071:RN 0
18 *58:10 *1100:I 5.86206e-05
19 *58:10 *1102:I 0
20 *58:10 *239:19 6.54133e-05
21 *58:10 *241:8 0.000198062
22 *58:10 *241:38 1.0415e-05
23 *1117:I *58:10 9.55009e-05
*RES
1 *1071:Q *58:10 12.96 
2 *58:10 *924:I 10.53 
3 *58:10 *1010:B 15.84 
*END

*D_NET *59 0.00436916
*CONN
*I *1058:D I *D gf180mcu_fd_sc_mcu7t5v0__dffrnq_1
*I *1019:ZN O *D gf180mcu_fd_sc_mcu7t5v0__aoi21_1
*CAP
1 *1058:D 0.000578239
2 *1019:ZN 0.000578239
3 *1058:D *925:I 0
4 *1058:D *930:B 0.00027267
5 *1058:D *1005:C 0
6 *1058:D *1006:A2 0.000125208
7 *1058:D *1012:B 2.08301e-05
8 *1058:D *1019:A1 5.30338e-05
9 *1058:D *1058:RN 0
10 *1058:D *1101:I 0.000156008
11 *1058:D *1137:I 3.01487e-05
12 *1058:D *83:12 0.000744726
13 *1058:D *139:10 0.000385445
14 *1058:D *146:18 0.000672543
15 *1058:D *195:8 0
16 *1058:D *237:14 0
17 *1058:D *241:44 2.48748e-05
18 *930:A1 *1058:D 4.71736e-05
19 *1006:A1 *1058:D 0.000234541
20 *38:16 *1058:D 0.000445479
*RES
1 *1019:ZN *1058:D 25.92 
*END

*D_NET *60 0.00136338
*CONN
*I *1059:D I *D gf180mcu_fd_sc_mcu7t5v0__dffrnq_1
*I *1021:ZN O *D gf180mcu_fd_sc_mcu7t5v0__aoi211_1
*CAP
1 *1059:D 0.000481648
2 *1021:ZN 0.000481648
3 *1059:D *1024:A2 0
4 *1059:D *1060:CLK 0.000395022
5 *1059:D *200:86 5.06031e-06
*RES
1 *1021:ZN *1059:D 21.51 
*END

*D_NET *61 0.00145592
*CONN
*I *1060:D I *D gf180mcu_fd_sc_mcu7t5v0__dffrnq_1
*I *1024:ZN O *D gf180mcu_fd_sc_mcu7t5v0__aoi211_1
*CAP
1 *1060:D 0.000641209
2 *1024:ZN 0.000641209
3 *1060:D *1024:A2 5.06031e-06
4 *1060:D *1024:B 9.65355e-06
5 *1060:D *1024:C 0.000158788
6 *40:14 *1060:D 0
*RES
1 *1024:ZN *1060:D 22.5 
*END

*D_NET *62 0.00150046
*CONN
*I *1061:D I *D gf180mcu_fd_sc_mcu7t5v0__dffsnq_1
*I *1030:Z O *D gf180mcu_fd_sc_mcu7t5v0__mux2_2
*CAP
1 *1061:D 0.000588619
2 *1030:Z 0.000588619
3 *1061:D *1074:CLK 0
4 *1061:D *1091:I 0
5 *1061:D *1092:I 3.7357e-05
6 *1061:D *196:52 0
7 *1061:D *196:68 0
8 *1061:D *198:30 0.00028587
*RES
1 *1030:Z *1061:D 13.5 
*END

*D_NET *63 0.000852273
*CONN
*I *1062:D I *D gf180mcu_fd_sc_mcu7t5v0__dffsnq_1
*I *1032:Z O *D gf180mcu_fd_sc_mcu7t5v0__mux2_2
*CAP
1 *1062:D 0.000426136
2 *1032:Z 0.000426136
3 *1062:D *1029:S 0
4 *1062:D *229:31 0
*RES
1 *1032:Z *1062:D 21.06 
*END

*D_NET *64 0.000681854
*CONN
*I *1063:D I *D gf180mcu_fd_sc_mcu7t5v0__dffsnq_1
*I *1034:Z O *D gf180mcu_fd_sc_mcu7t5v0__mux2_2
*CAP
1 *1063:D 0.000265213
2 *1034:Z 0.000265213
3 *1063:D *1034:I1 0.000151427
*RES
1 *1034:Z *1063:D 11.16 
*END

*D_NET *65 0.000355806
*CONN
*I *1064:D I *D gf180mcu_fd_sc_mcu7t5v0__dffsnq_1
*I *1036:Z O *D gf180mcu_fd_sc_mcu7t5v0__mux2_2
*CAP
1 *1064:D 0.000138873
2 *1036:Z 0.000138873
3 *1064:D *1036:I1 4.78286e-05
4 *1064:D *1064:CLK 3.02306e-05
*RES
1 *1036:Z *1064:D 9.99 
*END

*D_NET *66 0.00118839
*CONN
*I *1065:D I *D gf180mcu_fd_sc_mcu7t5v0__dffsnq_1
*I *1038:Z O *D gf180mcu_fd_sc_mcu7t5v0__mux2_2
*CAP
1 *1065:D 0.000566537
2 *1038:Z 0.000566537
3 *1065:D *1033:I0 4.77608e-05
4 *1065:D *1036:I1 0
5 *1065:D *1065:CLK 7.55765e-06
*RES
1 *1038:Z *1065:D 21.78 
*END

*D_NET *67 0.00133762
*CONN
*I *1066:D I *D gf180mcu_fd_sc_mcu7t5v0__dffsnq_1
*I *1040:Z O *D gf180mcu_fd_sc_mcu7t5v0__mux2_2
*CAP
1 *1066:D 0.000351317
2 *1040:Z 0.000351317
3 *1066:D *1043:A2 0.000352278
4 *1066:D *1067:CLK 4.6613e-06
5 *1066:D *1099:I 3.71764e-06
6 *1066:D *198:36 8.12053e-05
7 *1066:D *229:14 0.000138848
8 *1066:D *235:10 5.42728e-05
*RES
1 *1040:Z *1066:D 20.88 
*END

*D_NET *68 0.00034608
*CONN
*I *1067:D I *D gf180mcu_fd_sc_mcu7t5v0__dffsnq_1
*I *1044:Z O *D gf180mcu_fd_sc_mcu7t5v0__mux2_2
*CAP
1 *1067:D 0.00011601
2 *1044:Z 0.00011601
3 *1067:D *1029:I0 9.07783e-05
4 *1067:D *1067:CLK 2.32821e-05
*RES
1 *1044:Z *1067:D 9.99 
*END

*D_NET *69 0.00132094
*CONN
*I *1068:D I *D gf180mcu_fd_sc_mcu7t5v0__dffsnq_1
*I *1046:ZN O *D gf180mcu_fd_sc_mcu7t5v0__aoi21_1
*CAP
1 *1068:D 0.000272036
2 *1046:ZN 0.000272036
3 *1068:D *1029:I0 0.000106944
4 *1068:D *1043:A1 0.000601522
5 *1068:D *156:16 0
6 *1068:D *156:26 0
7 *1068:D *198:30 7.55765e-06
8 *1068:D *198:36 6.08466e-05
*RES
1 *1046:ZN *1068:D 20.88 
*END

*D_NET *70 0.000615215
*CONN
*I *1069:D I *D gf180mcu_fd_sc_mcu7t5v0__dffrnq_1
*I *1048:ZN O *D gf180mcu_fd_sc_mcu7t5v0__clkinv_1
*CAP
1 *1069:D 0.000307608
2 *1048:ZN 0.000307608
*RES
1 *1048:ZN *1069:D 11.16 
*END

*D_NET *71 0.00129216
*CONN
*I *1070:D I *D gf180mcu_fd_sc_mcu7t5v0__dffrnq_1
*I *1052:ZN O *D gf180mcu_fd_sc_mcu7t5v0__aoi21_1
*CAP
1 *1070:D 0.000582789
2 *1052:ZN 0.000582789
3 *1070:D *1049:A2 0
4 *1070:D *1054:B2 0
5 *1070:D *1070:CLK 4.6613e-06
6 *1070:D *1071:D 0.000121916
7 *1070:D *232:12 0
*RES
1 *1052:ZN *1070:D 21.96 
*END

*D_NET *72 0.00187276
*CONN
*I *1071:D I *D gf180mcu_fd_sc_mcu7t5v0__dffrnq_1
*I *1054:ZN O *D gf180mcu_fd_sc_mcu7t5v0__oai22_1
*CAP
1 *1071:D 0.000816846
2 *1054:ZN 0.000816846
3 *1071:D *1054:A1 2.71659e-05
4 *1071:D *1070:CLK 5.27466e-05
5 *1071:D *239:23 3.72378e-05
6 *1070:D *1071:D 0.000121916
*RES
1 *1054:ZN *1071:D 23.58 
*END

*D_NET *73 0.00156325
*CONN
*I *1072:D I *D gf180mcu_fd_sc_mcu7t5v0__dffrnq_1
*I *1057:ZN O *D gf180mcu_fd_sc_mcu7t5v0__oai21_1
*CAP
1 *1072:D 0.000322394
2 *1057:ZN 0.000322394
3 *1072:D *1056:B 0.000365445
4 *1072:D *1057:A1 0.000365454
5 *1072:D *1057:A2 9.85004e-05
6 *1072:D *157:6 1.23607e-05
7 *1072:D *225:10 7.67022e-05
8 *40:69 *1072:D 0
*RES
1 *1057:ZN *1072:D 21.6 
*END

*D_NET *74 0.0101285
*CONN
*I *1014:A3 I *D gf180mcu_fd_sc_mcu7t5v0__nand4_1
*I *1021:A1 I *D gf180mcu_fd_sc_mcu7t5v0__aoi211_1
*I *1003:B I *D gf180mcu_fd_sc_mcu7t5v0__aoi211_1
*I *1007:A3 I *D gf180mcu_fd_sc_mcu7t5v0__nor3_1
*I *1026:A3 I *D gf180mcu_fd_sc_mcu7t5v0__nor4_1
*I *920:ZN O *D gf180mcu_fd_sc_mcu7t5v0__clkinv_1
*CAP
1 *1014:A3 6.88308e-05
2 *1021:A1 0.000444042
3 *1003:B 0
4 *1007:A3 0.000253399
5 *1026:A3 0.000284158
6 *920:ZN 5.14889e-05
7 *74:51 0.00109351
8 *74:29 0.000332202
9 *74:14 0.000565222
10 *74:8 0.000834387
11 *1007:A3 *1002:A2 6.39127e-06
12 *1007:A3 *1003:A1 0.000169515
13 *1007:A3 *1003:A2 3.08083e-05
14 *1007:A3 *1004:B2 4.29496e-05
15 *1007:A3 *1072:RN 7.90489e-05
16 *1014:A3 *1014:A4 0.000294431
17 *1021:A1 *1015:A2 0.000164219
18 *1021:A1 *75:15 0.000164212
19 *1021:A1 *75:19 0.000147439
20 *1021:A1 *148:14 7.84385e-05
21 *1021:A1 *177:8 6.76406e-05
22 *1021:A1 *177:21 2.60683e-05
23 *1021:A1 *213:10 9.39061e-05
24 *1026:A3 *1057:A1 0
25 *1026:A3 *1072:RN 6.84426e-06
26 *1026:A3 *247:8 0
27 *74:8 *241:38 3.60189e-05
28 *74:14 *1003:A1 1.32722e-05
29 *74:14 *1020:A1 0.000365445
30 *74:14 *1056:A2 0.000223407
31 *74:14 *1056:C 1.23607e-05
32 *74:14 *1057:B 7.20938e-05
33 *74:29 *1072:RN 0
34 *74:51 *955:A1 2.15229e-05
35 *74:51 *1014:A4 0.000158788
36 *74:51 *1016:A4 0.000532287
37 *74:51 *1140:I 5.23429e-06
38 *74:51 *178:25 3.50385e-05
39 *74:51 *241:38 8.75026e-05
40 *918:I *1021:A1 6.17613e-06
41 *919:I *74:14 7.10237e-05
42 *919:I *74:51 0
43 *1003:C *1007:A3 0.000169515
44 *1007:A1 *74:14 9.30128e-05
45 *1007:A2 *1007:A3 0.000329387
46 *1007:A2 *74:14 0.000297859
47 *38:51 *74:14 0.000335306
48 *39:12 *1014:A3 0.000108777
49 *39:12 *74:51 2.08301e-05
50 *39:20 *74:51 0.000271275
51 *39:26 *74:14 3.22122e-05
52 *39:32 *74:14 0.000118414
53 *40:45 *1021:A1 2.65734e-05
54 *40:45 *74:51 0.000938798
55 *40:65 *1026:A3 9.01083e-06
56 *40:65 *74:29 0.000292006
57 *40:67 *1026:A3 4.00424e-05
58 *40:69 *1026:A3 0.000106141
*RES
1 *920:ZN *74:8 9.45 
2 *74:8 *74:14 12.51 
3 *74:14 *1026:A3 10.98 
4 *74:14 *74:29 5.31 
5 *74:29 *1007:A3 7.47 
6 *74:29 *1003:B 4.5 
7 *74:8 *74:51 11.52 
8 *74:51 *1021:A1 17.37 
9 *74:51 *1014:A3 5.58 
*END

*D_NET *75 0.00559208
*CONN
*I *1024:C I *D gf180mcu_fd_sc_mcu7t5v0__aoi211_1
*I *1021:C I *D gf180mcu_fd_sc_mcu7t5v0__aoi211_1
*I *1019:B I *D gf180mcu_fd_sc_mcu7t5v0__aoi21_1
*I *955:A1 I *D gf180mcu_fd_sc_mcu7t5v0__nor2_1
*I *921:ZN O *D gf180mcu_fd_sc_mcu7t5v0__clkinv_1
*CAP
1 *1024:C 0.000195602
2 *1021:C 4.84309e-05
3 *1019:B 0.000363558
4 *955:A1 8.52106e-05
5 *921:ZN 0
6 *75:19 0.000726896
7 *75:15 0.000934438
8 *75:4 0.000509139
9 *955:A1 *1138:I 1.19491e-05
10 *955:A1 *1140:I 0.000327505
11 *1019:B *1013:A2 0.000127736
12 *1019:B *1020:A4 0
13 *1019:B *1021:B 1.00099e-05
14 *1019:B *146:27 2.65444e-06
15 *1019:B *147:8 0
16 *1021:C *1021:B 2.89427e-06
17 *1021:C *147:8 2.18528e-05
18 *1024:C *1017:A2 0.000232503
19 *1024:C *1023:A2 0.000169524
20 *1024:C *1024:A2 8.15289e-06
21 *1024:C *1024:B 4.3342e-06
22 *1024:C *147:8 2.40587e-06
23 *1024:C *148:14 0.000219401
24 *1024:C *177:21 8.12023e-06
25 *75:15 *1014:A4 9.29483e-05
26 *75:15 *1015:A2 6.71551e-05
27 *75:15 *1020:A1 4.05591e-05
28 *75:15 *145:14 1.25592e-05
29 *75:15 *213:10 3.51278e-05
30 *75:19 *145:14 3.08806e-06
31 *75:19 *145:16 8.76817e-06
32 *75:19 *145:20 4.2964e-05
33 *1021:A1 *75:15 0.000164212
34 *1021:A1 *75:19 0.000147439
35 *1060:D *1024:C 0.000158788
36 *40:45 *955:A1 0.000784627
37 *74:51 *955:A1 2.15229e-05
*RES
1 *921:ZN *75:4 4.5 
2 *75:4 *955:A1 6.75 
3 *75:4 *75:15 7.29 
4 *75:15 *75:19 6.57 
5 *75:19 *1019:B 7.38 
6 *75:19 *1021:C 4.95 
7 *75:15 *1024:C 11.07 
*END

*D_NET *76 0.00434521
*CONN
*I *1010:A2 I *D gf180mcu_fd_sc_mcu7t5v0__oai21_1
*I *1009:A2 I *D gf180mcu_fd_sc_mcu7t5v0__and2_1
*I *1050:B2 I *D gf180mcu_fd_sc_mcu7t5v0__oai32_1
*I *1047:S I *D gf180mcu_fd_sc_mcu7t5v0__mux2_2
*I *1049:A1 I *D gf180mcu_fd_sc_mcu7t5v0__or2_1
*I *922:ZN O *D gf180mcu_fd_sc_mcu7t5v0__clkinv_1
*CAP
1 *1010:A2 5.13368e-05
2 *1009:A2 6.00735e-05
3 *1050:B2 1.87487e-05
4 *1047:S 4.80741e-05
5 *1049:A1 7.64167e-05
6 *922:ZN 9.26014e-05
7 *76:45 0.000187305
8 *76:20 0.00029449
9 *76:16 0.000433453
10 *76:10 0.000413202
11 *1009:A2 *1050:A2 5.36871e-05
12 *1010:A2 *1009:A1 0.000352047
13 *1010:A2 *1050:A3 0.000486059
14 *1010:A2 *143:15 6.99911e-06
15 *1047:S *1051:A1 0
16 *1047:S *1052:A1 0
17 *1047:S *232:10 9.4546e-05
18 *1047:S *233:14 1.79237e-05
19 *1049:A1 *1052:A1 0
20 *1049:A1 *232:10 9.76593e-05
21 *1050:B2 *1051:A1 8.49208e-05
22 *1050:B2 *1051:A2 8.49208e-05
23 *76:10 *922:I 7.54325e-05
24 *76:10 *77:12 3.85778e-05
25 *76:16 *1050:A1 0
26 *76:16 *1050:A2 2.65444e-06
27 *76:16 *1050:A3 3.01487e-05
28 *76:16 *1051:A2 1.44511e-06
29 *76:16 *1052:A1 0.000161845
30 *76:16 *77:12 0.000343199
31 *76:16 *239:76 0.000133188
32 *76:20 *1047:I0 0.000138118
33 *76:20 *1049:A2 4.21513e-05
34 *76:20 *1051:A1 4.42932e-05
35 *76:20 *1052:A1 0.00015651
36 *76:45 *1050:A2 7.10691e-06
37 *76:45 *1050:A3 0.000215362
38 *76:45 *143:15 7.191e-07
*RES
1 *922:ZN *76:10 14.31 
2 *76:10 *76:16 6.84 
3 *76:16 *76:20 6.21 
4 *76:20 *1049:A1 5.13 
5 *76:20 *1047:S 5.13 
6 *76:16 *1050:B2 9.27 
7 *76:10 *76:45 0.63 
8 *76:45 *1009:A2 5.13 
9 *76:45 *1010:A2 5.85 
*END

*D_NET *77 0.00272674
*CONN
*I *1050:B1 I *D gf180mcu_fd_sc_mcu7t5v0__oai32_1
*I *1052:A1 I *D gf180mcu_fd_sc_mcu7t5v0__aoi21_1
*I *923:ZN O *D gf180mcu_fd_sc_mcu7t5v0__clkinv_1
*CAP
1 *1050:B1 0
2 *1052:A1 0.000306902
3 *923:ZN 0.00023539
4 *77:12 0.000542291
5 *1052:A1 *922:I 0
6 *1052:A1 *1051:A1 0.000449848
7 *1052:A1 *1052:B 6.44696e-05
8 *1052:A1 *171:10 0.000143831
9 *1052:A1 *173:8 1.26644e-05
10 *1052:A1 *232:10 0
11 *77:12 *922:I 0
12 *77:12 *1008:A2 4.78178e-05
13 *77:12 *239:76 0.000223398
14 *1047:S *1052:A1 0
15 *1049:A1 *1052:A1 0
16 *76:10 *77:12 3.85778e-05
17 *76:16 *1052:A1 0.000161845
18 *76:16 *77:12 0.000343199
19 *76:20 *1052:A1 0.00015651
*RES
1 *923:ZN *77:12 11.43 
2 *77:12 *1052:A1 12.06 
3 *77:12 *1050:B1 9 
*END

*D_NET *78 0.000779744
*CONN
*I *1053:A2 I *D gf180mcu_fd_sc_mcu7t5v0__nand2_1
*I *1054:A1 I *D gf180mcu_fd_sc_mcu7t5v0__oai22_1
*I *924:ZN O *D gf180mcu_fd_sc_mcu7t5v0__clkinv_1
*CAP
1 *1053:A2 9.15409e-05
2 *1054:A1 0.000192278
3 *924:ZN 0
4 *78:4 0.000283819
5 *1053:A2 *1054:A2 0.000119192
6 *1053:A2 *239:76 3.87446e-05
7 *1054:A1 *1053:A1 2.70026e-05
8 *1071:D *1054:A1 2.71659e-05
*RES
1 *924:ZN *78:4 4.5 
2 *78:4 *1054:A1 14.67 
3 *78:4 *1053:A2 5.31 
*END

*D_NET *79 0.0022697
*CONN
*I *1056:A1 I *D gf180mcu_fd_sc_mcu7t5v0__oai211_1
*I *1026:A4 I *D gf180mcu_fd_sc_mcu7t5v0__nor4_1
*I *925:ZN O *D gf180mcu_fd_sc_mcu7t5v0__clkinv_1
*CAP
1 *1056:A1 1.81567e-05
2 *1026:A4 0.000207058
3 *925:ZN 0.000133261
4 *79:8 0.000358476
5 *1026:A4 *1056:B 0.000295162
6 *1056:A1 *1056:A2 0.000182206
7 *1026:A2 *1026:A4 2.74163e-05
8 *38:25 *1056:A1 0.000216087
9 *38:25 *79:8 0.000830438
10 *39:32 *1026:A4 1.4382e-06
*RES
1 *925:ZN *79:8 11.07 
2 *79:8 *1026:A4 10.53 
3 *79:8 *1056:A1 9.63 
*END

*D_NET *80 0.00177444
*CONN
*I *1012:A1 I *D gf180mcu_fd_sc_mcu7t5v0__aoi21_1
*I *926:ZN O *D gf180mcu_fd_sc_mcu7t5v0__clkinv_1
*CAP
1 *1012:A1 0.000638516
2 *926:ZN 0.000638516
3 *1012:A1 *925:I 0.00015997
4 *1012:A1 *1137:I 5.9617e-05
5 *1012:A1 *82:12 0.000235982
6 *928:A1 *1012:A1 4.1839e-05
*RES
1 *926:ZN *1012:A1 13.68 
*END

*D_NET *81 0.00206877
*CONN
*I *1004:A2 I *D gf180mcu_fd_sc_mcu7t5v0__aoi22_1
*I *1001:A2 I *D gf180mcu_fd_sc_mcu7t5v0__nand2_1
*I *927:ZN O *D gf180mcu_fd_sc_mcu7t5v0__nor2_1
*CAP
1 *1004:A2 0.000151108
2 *1001:A2 9.25974e-05
3 *927:ZN 0
4 *81:4 0.000243705
5 *1001:A2 *1003:A1 3.02473e-05
6 *1001:A2 *178:25 0
7 *919:I *1001:A2 9.84908e-05
8 *919:I *1004:A2 1.48164e-05
9 *1007:A2 *1001:A2 1.1746e-06
10 *38:51 *1001:A2 0.000231442
11 *38:75 *1004:A2 0.00080031
12 *40:45 *1001:A2 4.1854e-05
13 *40:45 *1004:A2 0.000363025
*RES
1 *927:ZN *81:4 4.5 
2 *81:4 *1001:A2 5.58 
3 *81:4 *1004:A2 15.75 
*END

*D_NET *82 0.00794779
*CONN
*I *1137:I I *D gf180mcu_fd_sc_mcu7t5v0__clkbuf_1
*I *1041:A2 I *D gf180mcu_fd_sc_mcu7t5v0__aoi21_1
*I *1025:A2 I *D gf180mcu_fd_sc_mcu7t5v0__nand2_1
*I *928:ZN O *D gf180mcu_fd_sc_mcu7t5v0__nor3_1
*CAP
1 *1137:I 0.000307725
2 *1041:A2 3.11727e-05
3 *1025:A2 9.92715e-05
4 *928:ZN 0
5 *82:12 0.000968615
6 *82:4 0.0011459
7 *1025:A2 *1025:A1 0.000229402
8 *1025:A2 *1061:SETN 3.12451e-05
9 *1025:A2 *198:17 2.87839e-05
10 *1041:A2 *1030:I0 8.68281e-06
11 *1041:A2 *1061:SETN 9.04462e-05
12 *1137:I *925:I 6.19076e-05
13 *1137:I *1012:B 0.000206927
14 *1137:I *139:10 0.00050482
15 *1137:I *146:18 3.01527e-05
16 *82:12 *926:I 0.000337978
17 *82:12 *1025:A1 0.000216087
18 *82:12 *1072:CLK 7.59116e-05
19 *82:12 *198:15 4.15093e-05
20 *82:12 *198:17 0.000138299
21 *82:12 *225:16 0.00233847
22 *928:A1 *1137:I 3.22348e-05
23 *928:A1 *82:12 0.000163559
24 *1006:A1 *1137:I 0.000127778
25 *1012:A1 *1137:I 5.9617e-05
26 *1012:A1 *82:12 0.000235982
27 *1058:D *1137:I 3.01487e-05
28 *38:16 *1137:I 0.000322768
29 *38:16 *82:12 3.01487e-05
30 *40:75 *82:12 5.22543e-05
*RES
1 *928:ZN *82:4 4.5 
2 *82:4 *82:12 15.03 
3 *82:12 *1025:A2 9.9 
4 *82:12 *1041:A2 9.27 
5 *82:4 *1137:I 17.46 
*END

*D_NET *83 0.00624173
*CONN
*I *996:C I *D gf180mcu_fd_sc_mcu7t5v0__oai221_1
*I *956:B I *D gf180mcu_fd_sc_mcu7t5v0__oai21_1
*I *954:A1 I *D gf180mcu_fd_sc_mcu7t5v0__and2_1
*I *930:ZN O *D gf180mcu_fd_sc_mcu7t5v0__aoi21_1
*CAP
1 *996:C 7.28661e-05
2 *956:B 0.000253976
3 *954:A1 2.82546e-05
4 *930:ZN 0.000379085
5 *83:12 0.00058845
6 *954:A1 *954:A2 3.12451e-05
7 *954:A1 *997:B 1.07374e-05
8 *954:A1 *103:16 5.23429e-06
9 *954:A1 *200:16 1.0415e-05
10 *956:B *954:A2 7.49286e-05
11 *956:B *997:A2 0.000682888
12 *956:B *997:B 0.000185074
13 *956:B *1098:I 3.01487e-05
14 *996:C *996:A2 1.87718e-05
15 *996:C *997:B 0.000593964
16 *996:C *1098:I 0.000913822
17 *83:12 *930:B 1.34934e-05
18 *83:12 *954:A2 1.07281e-05
19 *83:12 *997:A2 2.70125e-05
20 *83:12 *1087:RN 0.000168866
21 *83:12 *200:16 0.000958234
22 *83:12 *240:16 0
23 *83:12 *241:44 6.79568e-05
24 *83:12 *241:46 2.75886e-05
25 *930:A1 *83:12 5.68787e-05
26 *930:A2 *83:12 0.000286386
27 *1058:D *83:12 0.000744726
*RES
1 *930:ZN *83:12 19.62 
2 *83:12 *954:A1 4.77 
3 *83:12 *956:B 6.93 
4 *956:B *996:C 11.43 
*END

*D_NET *84 0.00445688
*CONN
*I *951:A1 I *D gf180mcu_fd_sc_mcu7t5v0__nor4_1
*I *931:Z O *D gf180mcu_fd_sc_mcu7t5v0__xor2_1
*CAP
1 *951:A1 0.000688904
2 *931:Z 0.000688904
3 *951:A1 *931:A2 0
4 *951:A1 *936:A1 0.000230994
5 *951:A1 *946:A1 0.00088562
6 *951:A1 *951:A2 0.000205482
7 *951:A1 *994:A1 0.000171937
8 *951:A1 *994:A2 0.000255544
9 *951:A1 *1000:A1 0.00043521
10 *951:A1 *1085:RN 0
11 *951:A1 *182:16 2.27485e-05
12 *951:A1 *236:24 0
13 *951:A1 *240:44 0.00075429
14 *25:18 *951:A1 0.000117246
*RES
1 *931:Z *951:A1 26.46 
*END

*D_NET *85 0.00140556
*CONN
*I *950:A1 I *D gf180mcu_fd_sc_mcu7t5v0__nand4_1
*I *932:ZN O *D gf180mcu_fd_sc_mcu7t5v0__xnor2_1
*CAP
1 *950:A1 0.000672987
2 *932:ZN 0.000672987
3 *950:A1 *950:A4 5.69369e-05
4 *950:A1 *103:16 2.65444e-06
5 *950:A1 *196:6 0
6 *950:A1 *196:15 0
7 *1090:I *950:A1 0
*RES
1 *932:ZN *950:A1 13.68 
*END

*D_NET *86 0.0030143
*CONN
*I *952:A1 I *D gf180mcu_fd_sc_mcu7t5v0__nand4_1
*I *933:ZN O *D gf180mcu_fd_sc_mcu7t5v0__xnor2_1
*CAP
1 *952:A1 0.000951992
2 *933:ZN 0.000951992
3 *952:A1 *932:A1 2.30981e-05
4 *952:A1 *951:A3 0.000590433
5 *952:A1 *105:14 0.000496785
6 *952:A1 *230:24 0
*RES
1 *933:ZN *952:A1 16.92 
*END

*D_NET *87 0.00337632
*CONN
*I *947:A1 I *D gf180mcu_fd_sc_mcu7t5v0__nor2_1
*I *934:Z O *D gf180mcu_fd_sc_mcu7t5v0__xor2_1
*CAP
1 *947:A1 0.000662232
2 *934:Z 0.000662232
3 *947:A1 *934:A1 7.191e-07
4 *947:A1 *952:A3 0.000432509
5 *947:A1 *1077:CLK 0
6 *947:A1 *1080:RN 0.000343265
7 *947:A1 *1080:CLK 0.000604092
8 *947:A1 *105:14 0.000285829
9 *947:A1 *192:8 0
10 *947:A1 *199:14 0.000385445
*RES
1 *934:Z *947:A1 26.28 
*END

*D_NET *88 0.00138056
*CONN
*I *949:A1 I *D gf180mcu_fd_sc_mcu7t5v0__nor4_1
*I *935:Z O *D gf180mcu_fd_sc_mcu7t5v0__xor2_1
*CAP
1 *949:A1 0.000252154
2 *935:Z 0.000252154
3 *949:A1 *935:A2 0.000520387
4 *949:A1 *941:A2 7.09033e-06
5 *949:A1 *949:A3 0.000274685
6 *949:A1 *949:A4 1.0415e-05
7 *949:A1 *969:A2 2.08301e-05
8 *949:A1 *977:A2 9.3226e-06
9 *949:A1 *190:19 1.0415e-05
10 *949:A1 *191:26 2.31089e-05
*RES
1 *935:Z *949:A1 20.34 
*END

*D_NET *89 0.00162167
*CONN
*I *950:A2 I *D gf180mcu_fd_sc_mcu7t5v0__nand4_1
*I *936:ZN O *D gf180mcu_fd_sc_mcu7t5v0__xnor2_1
*CAP
1 *950:A2 0.000326877
2 *936:ZN 0.000326877
3 *950:A2 *950:A3 7.86152e-05
4 *950:A2 *953:A1 0
5 *950:A2 *103:16 0
6 *950:A2 *105:14 0.000121157
7 *950:A2 *105:22 7.77106e-05
8 *950:A2 *196:15 7.86369e-05
9 *950:A2 *240:16 0.0006118
*RES
1 *936:ZN *950:A2 21.51 
*END

*D_NET *90 0.00350323
*CONN
*I *951:A2 I *D gf180mcu_fd_sc_mcu7t5v0__nor4_1
*I *937:Z O *D gf180mcu_fd_sc_mcu7t5v0__xor2_1
*CAP
1 *951:A2 0.000761682
2 *937:Z 0.000761682
3 *951:A2 *944:A2 1.98195e-05
4 *951:A2 *946:A1 8.19347e-05
5 *951:A2 *947:A2 0.000302466
6 *951:A2 *951:A4 7.55298e-05
7 *951:A2 *991:A1 0.000195071
8 *951:A2 *182:16 0.000184334
9 *951:A2 *240:44 0.00075429
10 *951:A1 *951:A2 0.000205482
11 *25:18 *951:A2 0.000160943
*RES
1 *937:Z *951:A2 25.74 
*END

*D_NET *91 0.00181471
*CONN
*I *952:A2 I *D gf180mcu_fd_sc_mcu7t5v0__nand4_1
*I *938:ZN O *D gf180mcu_fd_sc_mcu7t5v0__xnor2_1
*CAP
1 *952:A2 0.000596416
2 *938:ZN 0.000596416
3 *952:A2 *938:A1 1.79237e-05
4 *952:A2 *951:A3 4.30101e-05
5 *952:A2 *951:A4 2.26729e-05
6 *952:A2 *952:A4 0.000360715
7 *952:A2 *105:14 0.000177559
*RES
1 *938:ZN *952:A2 14.31 
*END

*D_NET *92 0.00794931
*CONN
*I *951:A3 I *D gf180mcu_fd_sc_mcu7t5v0__nor4_1
*I *939:Z O *D gf180mcu_fd_sc_mcu7t5v0__xor2_1
*CAP
1 *951:A3 0.00117053
2 *939:Z 0.00117053
3 *951:A3 *932:A1 0.000575624
4 *951:A3 *947:A2 0.00235658
5 *951:A3 *950:A4 0.000175855
6 *951:A3 *951:A4 1.61174e-05
7 *951:A3 *952:A4 0.00105308
8 *951:A3 *1075:CLK 1.92567e-05
9 *951:A3 *1077:RN 4.83522e-05
10 *951:A3 *105:14 3.58474e-05
11 *951:A3 *112:10 5.8316e-05
12 *951:A3 *240:25 0.000370676
13 *951:A3 *240:44 3.54696e-05
14 *952:A1 *951:A3 0.000590433
15 *952:A2 *951:A3 4.30101e-05
16 *1090:I *951:A3 4.73474e-05
17 *25:18 *951:A3 0.000182299
*RES
1 *939:Z *951:A3 34.29 
*END

*D_NET *93 0.000789788
*CONN
*I *942:A1 I *D gf180mcu_fd_sc_mcu7t5v0__nor2_1
*I *940:Z O *D gf180mcu_fd_sc_mcu7t5v0__xor2_1
*CAP
1 *942:A1 3.88497e-05
2 *940:Z 3.88497e-05
3 *942:A1 *948:A2 0.000433797
4 *942:A1 *230:87 0.000169515
5 *942:A1 *230:104 0.000108777
*RES
1 *940:Z *942:A1 10.17 
*END

*D_NET *94 0.00142105
*CONN
*I *942:A2 I *D gf180mcu_fd_sc_mcu7t5v0__nor2_1
*I *941:Z O *D gf180mcu_fd_sc_mcu7t5v0__xor2_1
*CAP
1 *942:A2 0.000556744
2 *941:Z 0.000556744
3 *942:A2 *940:A1 1.61174e-05
4 *942:A2 *941:A1 4.6613e-06
5 *942:A2 *948:A1 0.000100101
6 *942:A2 *230:87 0.000186687
*RES
1 *941:Z *942:A2 13.32 
*END

*D_NET *95 0.00372743
*CONN
*I *952:A3 I *D gf180mcu_fd_sc_mcu7t5v0__nand4_1
*I *942:ZN O *D gf180mcu_fd_sc_mcu7t5v0__nor2_1
*CAP
1 *952:A3 0.00112888
2 *942:ZN 0.00112888
3 *952:A3 *978:A1 6.06622e-05
4 *952:A3 *1080:CLK 0.000373463
5 *952:A3 *120:18 0.000603026
6 *947:A1 *952:A3 0.000432509
*RES
1 *942:ZN *952:A3 29.79 
*END

*D_NET *96 0.00276392
*CONN
*I *949:A2 I *D gf180mcu_fd_sc_mcu7t5v0__nor4_1
*I *943:Z O *D gf180mcu_fd_sc_mcu7t5v0__xor2_1
*CAP
1 *949:A2 0.0011698
2 *943:Z 0.0011698
3 *949:A2 *943:A1 0
4 *949:A2 *957:A2 5.16855e-05
5 *949:A2 *973:A1 6.65211e-05
6 *949:A2 *974:A2 0.00013217
7 *949:A2 *977:A2 0.000155874
8 *949:A2 *1078:RN 0
9 *949:A2 *190:12 0
10 *949:A2 *190:19 1.80781e-05
11 *949:A2 *230:79 0
12 *949:A2 *238:105 0
13 *1079:D *949:A2 0
*RES
1 *943:Z *949:A2 16.74 
*END

*D_NET *97 0.00283055
*CONN
*I *951:A4 I *D gf180mcu_fd_sc_mcu7t5v0__nor4_1
*I *944:Z O *D gf180mcu_fd_sc_mcu7t5v0__xor2_1
*CAP
1 *951:A4 0.00049474
2 *944:Z 0.00049474
3 *951:A4 *938:A1 1.23607e-05
4 *951:A4 *944:A2 0.000104612
5 *951:A4 *947:A2 0.000110619
6 *951:A4 *991:A1 0.00077391
7 *951:A4 *991:A2 0.000295383
8 *951:A4 *992:A2 3.22348e-05
9 *951:A4 *236:12 0.000349789
10 *951:A2 *951:A4 7.55298e-05
11 *951:A3 *951:A4 1.61174e-05
12 *952:A2 *951:A4 2.26729e-05
13 *1085:D *951:A4 4.78445e-05
*RES
1 *944:Z *951:A4 14.67 
*END

*D_NET *98 0.00127947
*CONN
*I *949:A3 I *D gf180mcu_fd_sc_mcu7t5v0__nor4_1
*I *945:Z O *D gf180mcu_fd_sc_mcu7t5v0__xor2_1
*CAP
1 *949:A3 0.000287629
2 *945:Z 0.000287629
3 *949:A3 *935:A2 1.99615e-05
4 *949:A3 *941:A2 5.30545e-05
5 *949:A3 *949:A4 6.04805e-05
6 *949:A3 *969:A2 1.4382e-06
7 *949:A3 *977:A2 0.000150744
8 *949:A3 *191:26 0.000143853
9 *949:A1 *949:A3 0.000274685
*RES
1 *945:Z *949:A3 20.43 
*END

*D_NET *99 0.00447802
*CONN
*I *947:A2 I *D gf180mcu_fd_sc_mcu7t5v0__nor2_1
*I *946:Z O *D gf180mcu_fd_sc_mcu7t5v0__xor2_1
*CAP
1 *947:A2 0.000305422
2 *946:Z 0.000305422
3 *947:A2 *240:44 0.00109752
4 *951:A2 *947:A2 0.000302466
5 *951:A3 *947:A2 0.00235658
6 *951:A4 *947:A2 0.000110619
*RES
1 *946:Z *947:A2 17.01 
*END

*D_NET *100 0.000963896
*CONN
*I *950:A3 I *D gf180mcu_fd_sc_mcu7t5v0__nand4_1
*I *947:ZN O *D gf180mcu_fd_sc_mcu7t5v0__nor2_1
*CAP
1 *950:A3 0.000335905
2 *947:ZN 0.000335905
3 *950:A3 *105:14 1.47929e-05
4 *950:A3 *189:8 0.000101615
5 *950:A2 *950:A3 7.86152e-05
6 *25:18 *950:A3 9.70628e-05
*RES
1 *947:ZN *950:A3 20.52 
*END

*D_NET *101 0.00202304
*CONN
*I *949:A4 I *D gf180mcu_fd_sc_mcu7t5v0__nor4_1
*I *948:Z O *D gf180mcu_fd_sc_mcu7t5v0__xor2_1
*CAP
1 *949:A4 0.000426025
2 *948:Z 0.000426025
3 *949:A4 *941:A2 6.10035e-05
4 *949:A4 *977:A2 0.000588604
5 *949:A4 *978:A3 0.000444513
6 *949:A4 *191:26 5.97457e-06
7 *949:A4 *230:87 0
8 *949:A1 *949:A4 1.0415e-05
9 *949:A3 *949:A4 6.04805e-05
*RES
1 *948:Z *949:A4 13.32 
*END

*D_NET *102 0.00424745
*CONN
*I *950:A4 I *D gf180mcu_fd_sc_mcu7t5v0__nand4_1
*I *949:ZN O *D gf180mcu_fd_sc_mcu7t5v0__nor4_1
*CAP
1 *950:A4 0.00152767
2 *949:ZN 0.00152767
3 *950:A4 *932:A1 0
4 *950:A4 *935:A2 4.34597e-05
5 *950:A4 *941:A2 3.45237e-05
6 *950:A4 *972:A1 5.4366e-05
7 *950:A4 *189:18 0.000420834
8 *950:A4 *230:87 2.36152e-06
9 *950:A1 *950:A4 5.69369e-05
10 *951:A3 *950:A4 0.000175855
11 *1090:I *950:A4 8.91159e-05
12 *25:18 *950:A4 0.000314654
*RES
1 *949:ZN *950:A4 31.86 
*END

*D_NET *103 0.00581036
*CONN
*I *953:A1 I *D gf180mcu_fd_sc_mcu7t5v0__nor2_1
*I *996:A1 I *D gf180mcu_fd_sc_mcu7t5v0__oai221_1
*I *956:A1 I *D gf180mcu_fd_sc_mcu7t5v0__oai21_1
*I *950:ZN O *D gf180mcu_fd_sc_mcu7t5v0__nand4_1
*CAP
1 *953:A1 9.15252e-05
2 *996:A1 0.000200973
3 *956:A1 0
4 *950:ZN 0.000126462
5 *103:16 0.000585419
6 *103:6 0.000602434
7 *953:A1 *196:15 4.78178e-05
8 *996:A1 *956:A2 1.19491e-05
9 *996:A1 *996:A2 0.000549483
10 *996:A1 *997:B 0.000794834
11 *103:16 *997:A1 2.08301e-05
12 *103:16 *997:A2 1.07281e-05
13 *103:16 *997:B 0.000874831
14 *103:16 *1097:I 0.00175189
15 *103:16 *1098:I 9.04462e-05
16 *103:16 *196:15 3.24315e-05
17 *103:16 *200:16 1.0415e-05
18 *950:A1 *103:16 2.65444e-06
19 *950:A2 *953:A1 0
20 *950:A2 *103:16 0
21 *954:A1 *103:16 5.23429e-06
*RES
1 *950:ZN *103:6 5.49 
2 *103:6 *103:16 14.67 
3 *103:16 *956:A1 4.5 
4 *103:16 *996:A1 8.19 
5 *103:6 *953:A1 5.13 
*END

*D_NET *104 0.00277643
*CONN
*I *952:A4 I *D gf180mcu_fd_sc_mcu7t5v0__nand4_1
*I *951:ZN O *D gf180mcu_fd_sc_mcu7t5v0__nor4_1
*CAP
1 *952:A4 0.000681318
2 *951:ZN 0.000681318
3 *952:A4 *199:44 0
4 *951:A3 *952:A4 0.00105308
5 *952:A2 *952:A4 0.000360715
*RES
1 *951:ZN *952:A4 24.39 
*END

*D_NET *105 0.00601019
*CONN
*I *953:A2 I *D gf180mcu_fd_sc_mcu7t5v0__nor2_1
*I *956:A2 I *D gf180mcu_fd_sc_mcu7t5v0__oai21_1
*I *996:A2 I *D gf180mcu_fd_sc_mcu7t5v0__oai221_1
*I *952:ZN O *D gf180mcu_fd_sc_mcu7t5v0__nand4_1
*CAP
1 *953:A2 0
2 *956:A2 2.61388e-05
3 *996:A2 0.000340413
4 *952:ZN 0.000647249
5 *105:22 0.00067708
6 *105:14 0.000957778
7 *996:A2 *936:A1 0.000209064
8 *996:A2 *997:B 0
9 *996:A2 *1093:I 0.000121905
10 *996:A2 *1098:I 3.75922e-05
11 *996:A2 *196:19 0.000105777
12 *105:14 *1080:RN 0.000445479
13 *105:14 *189:8 2.20809e-05
14 *105:14 *196:15 5.79059e-06
15 *105:14 *240:16 0
16 *105:22 *936:A1 3.55118e-05
17 *105:22 *997:A1 2.95601e-05
18 *105:22 *1087:CLK 2.65444e-06
19 *105:22 *1097:I 0.000110639
20 *105:22 *1098:I 2.93938e-05
21 *105:22 *184:14 8.04753e-05
22 *105:22 *240:16 0.000335725
23 *947:A1 *105:14 0.000285829
24 *950:A2 *105:14 0.000121157
25 *950:A2 *105:22 7.77106e-05
26 *950:A3 *105:14 1.47929e-05
27 *951:A3 *105:14 3.58474e-05
28 *952:A1 *105:14 0.000496785
29 *952:A2 *105:14 0.000177559
30 *996:A1 *956:A2 1.19491e-05
31 *996:A1 *996:A2 0.000549483
32 *996:C *996:A2 1.87718e-05
33 *1087:D *956:A2 0
34 *25:18 *105:14 0
*RES
1 *952:ZN *105:14 19.89 
2 *105:14 *105:22 12.42 
3 *105:22 *996:A2 8.91 
4 *105:22 *956:A2 4.77 
5 *105:14 *953:A2 4.5 
*END

*D_NET *106 0.00266613
*CONN
*I *954:A2 I *D gf180mcu_fd_sc_mcu7t5v0__and2_1
*I *953:ZN O *D gf180mcu_fd_sc_mcu7t5v0__nor2_1
*CAP
1 *954:A2 0.000360094
2 *953:ZN 0.000360094
3 *954:A2 *997:A1 8.3187e-05
4 *954:A2 *997:A2 0.000700984
5 *954:A2 *1097:I 0.000101685
6 *954:A2 *240:16 0.000943181
7 *954:A1 *954:A2 3.12451e-05
8 *956:B *954:A2 7.49286e-05
9 *83:12 *954:A2 1.07281e-05
*RES
1 *953:ZN *954:A2 22.86 
*END

*D_NET *107 0.00886169
*CONN
*I *1098:I I *D gf180mcu_fd_sc_mcu7t5v0__dlyb_1
*I *1097:I I *D gf180mcu_fd_sc_mcu7t5v0__dlyb_1
*I *956:ZN O *D gf180mcu_fd_sc_mcu7t5v0__oai21_1
*CAP
1 *1098:I 0.0011715
2 *1097:I 0.000652362
3 *956:ZN 0
4 *107:4 0.00182387
5 *1097:I *997:A1 0.000535916
6 *1097:I *997:A2 1.24166e-05
7 *1097:I *189:8 1.47172e-05
8 *1097:I *240:16 0.000197682
9 *1098:I *931:A2 4.39427e-05
10 *1098:I *936:A1 3.00709e-05
11 *1098:I *995:A3 1.10944e-05
12 *1098:I *997:A2 0.00040241
13 *1098:I *997:B 5.59262e-05
14 *1098:I *999:A2 2.81722e-05
15 *1098:I *132:8 3.93918e-05
16 *1098:I *132:25 0.000322099
17 *1098:I *184:14 0.000299714
18 *1098:I *200:43 3.48193e-05
19 *954:A2 *1097:I 0.000101685
20 *956:B *1098:I 3.01487e-05
21 *996:A2 *1098:I 3.75922e-05
22 *996:C *1098:I 0.000913822
23 *1087:D *1097:I 0.000119966
24 *103:16 *1097:I 0.00175189
25 *103:16 *1098:I 9.04462e-05
26 *105:22 *1097:I 0.000110639
27 *105:22 *1098:I 2.93938e-05
*RES
1 *956:ZN *107:4 4.5 
2 *107:4 *1097:I 21.6 
3 *107:4 *1098:I 24.39 
*END

*D_NET *108 0.000388667
*CONN
*I *959:A2 I *D gf180mcu_fd_sc_mcu7t5v0__nor2_1
*I *958:ZN O *D gf180mcu_fd_sc_mcu7t5v0__xnor2_1
*CAP
1 *959:A2 0.000173399
2 *958:ZN 0.000173399
3 *959:A2 *932:A2 4.18699e-05
4 *959:A2 *958:A2 0
*RES
1 *958:ZN *959:A2 10.26 
*END

*D_NET *109 0.00315738
*CONN
*I *962:A2 I *D gf180mcu_fd_sc_mcu7t5v0__nor3_1
*I *963:A2 I *D gf180mcu_fd_sc_mcu7t5v0__and2_1
*I *965:A2 I *D gf180mcu_fd_sc_mcu7t5v0__nor2_1
*I *960:Z O *D gf180mcu_fd_sc_mcu7t5v0__and3_1
*CAP
1 *962:A2 0
2 *963:A2 7.42567e-05
3 *965:A2 0.000100327
4 *960:Z 0.000147368
5 *109:12 0.000269657
6 *109:8 0.000242441
7 *963:A2 *1075:CLK 0.000628097
8 *963:A2 *188:23 0.000257557
9 *965:A2 *939:A1 0.000122966
10 *965:A2 *965:A1 0
11 *965:A2 *966:A3 9.55009e-05
12 *965:A2 *179:38 0.000292006
13 *109:8 *961:A2 4.19499e-05
14 *109:8 *962:A3 6.06389e-05
15 *109:8 *188:23 8.68281e-06
16 *109:8 *230:32 0.00037349
17 *109:12 *965:A1 0
18 *109:12 *179:38 0.00043778
19 *109:12 *188:10 0
20 *1075:D *109:8 4.6613e-06
*RES
1 *960:Z *109:8 6.12 
2 *109:8 *109:12 5.67 
3 *109:12 *965:A2 10.44 
4 *109:12 *963:A2 10.71 
5 *109:8 *962:A2 4.5 
*END

*D_NET *110 0.000431453
*CONN
*I *962:A3 I *D gf180mcu_fd_sc_mcu7t5v0__nor3_1
*I *961:ZN O *D gf180mcu_fd_sc_mcu7t5v0__aoi21_1
*CAP
1 *962:A3 0.000159018
2 *961:ZN 0.000159018
3 *962:A3 *961:A2 1.87007e-05
4 *962:A3 *179:38 3.40778e-05
5 *962:A3 *187:29 0
6 *109:8 *962:A3 6.06389e-05
*RES
1 *961:ZN *962:A3 10.53 
*END

*D_NET *111 0.00307528
*CONN
*I *966:A2 I *D gf180mcu_fd_sc_mcu7t5v0__nor3_1
*I *971:A2 I *D gf180mcu_fd_sc_mcu7t5v0__aoi21_1
*I *963:Z O *D gf180mcu_fd_sc_mcu7t5v0__and2_1
*CAP
1 *966:A2 0.000175976
2 *971:A2 0.000406245
3 *963:Z 6.2696e-05
4 *111:8 0.000644916
5 *966:A2 *939:A1 8.93058e-05
6 *966:A2 *230:49 0.000175108
7 *971:A2 *933:A1 0.000526384
8 *971:A2 *973:A1 0.000163714
9 *971:A2 *1078:RN 0.000193087
10 *971:A2 *230:38 0
11 *971:A2 *230:49 0.000487578
12 *971:A2 *230:79 5.25008e-05
13 *111:8 *933:A1 9.7773e-05
14 *111:8 *230:38 0
*RES
1 *963:Z *111:8 9.81 
2 *111:8 *971:A2 15.3 
3 *111:8 *966:A2 10.71 
*END

*D_NET *112 0.00799674
*CONN
*I *967:A2 I *D gf180mcu_fd_sc_mcu7t5v0__xor2_1
*I *989:A1 I *D gf180mcu_fd_sc_mcu7t5v0__nor4_1
*I *976:A1 I *D gf180mcu_fd_sc_mcu7t5v0__nor3_1
*I *970:A1 I *D gf180mcu_fd_sc_mcu7t5v0__nor2_1
*I *964:ZN O *D gf180mcu_fd_sc_mcu7t5v0__nand4_1
*CAP
1 *967:A2 0.000208198
2 *989:A1 0.000153416
3 *976:A1 2.12057e-05
4 *970:A1 0.000169021
5 *964:ZN 0.000704243
6 *112:18 0.000292595
7 *112:14 0.000822187
8 *112:10 0.00147884
9 *967:A2 *967:A1 0.000291749
10 *967:A2 *968:A2 2.03496e-05
11 *970:A1 *989:A2 0
12 *970:A1 *115:8 1.79237e-05
13 *970:A1 *115:19 0.000130814
14 *970:A1 *120:18 6.5543e-05
15 *976:A1 *115:19 2.36813e-05
16 *976:A1 *120:18 1.0415e-05
17 *989:A1 *989:A2 0.000215916
18 *989:A1 *1080:RN 0.000229831
19 *989:A1 *115:19 1.36414e-05
20 *989:A1 *120:18 0.00102705
21 *112:10 *933:A1 9.98816e-05
22 *112:10 *933:A2 8.12023e-06
23 *112:10 *939:A2 7.01651e-05
24 *112:10 *968:A1 0.000142047
25 *112:10 *968:A2 3.22348e-05
26 *112:10 *1075:CLK 0
27 *112:10 *189:18 5.88844e-05
28 *112:10 *230:24 0.000167194
29 *112:14 *934:A1 3.42509e-05
30 *112:14 *1080:RN 9.71379e-05
31 *112:14 *189:8 6.26041e-05
32 *112:14 *189:18 0.000302284
33 *112:14 *192:16 0.000382875
34 *112:18 *192:16 0.000229402
35 *951:A3 *112:10 5.8316e-05
36 *1077:D *967:A2 6.02974e-05
37 *1077:D *112:10 0.000294421
*RES
1 *964:ZN *112:10 10.71 
2 *112:10 *112:14 9.63 
3 *112:14 *112:18 5.13 
4 *112:18 *970:A1 6.12 
5 *112:18 *976:A1 4.77 
6 *112:14 *989:A1 11.79 
7 *112:10 *967:A2 6.3 
*END

*D_NET *113 0.000323299
*CONN
*I *966:A3 I *D gf180mcu_fd_sc_mcu7t5v0__nor3_1
*I *965:ZN O *D gf180mcu_fd_sc_mcu7t5v0__nor2_1
*CAP
1 *966:A3 8.58032e-05
2 *965:ZN 8.58032e-05
3 *966:A3 *939:A1 8.12856e-06
4 *965:A2 *966:A3 9.55009e-05
5 *1076:D *966:A3 4.8063e-05
*RES
1 *965:ZN *966:A3 9.81 
*END

*D_NET *114 0.00124297
*CONN
*I *968:A2 I *D gf180mcu_fd_sc_mcu7t5v0__nor2_1
*I *967:Z O *D gf180mcu_fd_sc_mcu7t5v0__xor2_1
*CAP
1 *968:A2 0.000280005
2 *967:Z 0.000280005
3 *968:A2 *967:A1 6.62654e-05
4 *968:A2 *1077:CLK 6.84043e-05
5 *968:A2 *189:18 0.000226458
6 *967:A2 *968:A2 2.03496e-05
7 *1077:D *968:A2 0.000269243
8 *112:10 *968:A2 3.22348e-05
*RES
1 *967:Z *968:A2 12.06 
*END

*D_NET *115 0.00255795
*CONN
*I *989:A2 I *D gf180mcu_fd_sc_mcu7t5v0__nor4_1
*I *976:A2 I *D gf180mcu_fd_sc_mcu7t5v0__nor3_1
*I *970:A2 I *D gf180mcu_fd_sc_mcu7t5v0__nor2_1
*I *969:ZN O *D gf180mcu_fd_sc_mcu7t5v0__nand2_1
*CAP
1 *989:A2 0.000308082
2 *976:A2 0
3 *970:A2 0
4 *969:ZN 0.000158342
5 *115:19 0.000590531
6 *115:8 0.000440791
7 *989:A2 *989:A3 0.000184157
8 *989:A2 *1080:RN 0.000237866
9 *989:A2 *120:18 7.55765e-06
10 *115:8 *975:A1 7.51619e-05
11 *115:8 *116:12 5.69319e-05
12 *115:8 *191:34 5.07195e-06
13 *115:19 *975:A1 4.30312e-05
14 *115:19 *976:A3 1.29418e-05
15 *115:19 *977:B 0
16 *115:19 *989:A3 3.55118e-05
17 *970:A1 *989:A2 0
18 *970:A1 *115:8 1.79237e-05
19 *970:A1 *115:19 0.000130814
20 *976:A1 *115:19 2.36813e-05
21 *989:A1 *989:A2 0.000215916
22 *989:A1 *115:19 1.36414e-05
*RES
1 *969:ZN *115:8 5.94 
2 *115:8 *970:A2 4.5 
3 *115:8 *115:19 2.25 
4 *115:19 *976:A2 4.5 
5 *115:19 *989:A2 7.47 
*END

*D_NET *116 0.00567768
*CONN
*I *972:A2 I *D gf180mcu_fd_sc_mcu7t5v0__nor3_1
*I *977:A2 I *D gf180mcu_fd_sc_mcu7t5v0__aoi21_1
*I *973:A2 I *D gf180mcu_fd_sc_mcu7t5v0__xnor2_1
*I *970:ZN O *D gf180mcu_fd_sc_mcu7t5v0__nor2_1
*CAP
1 *972:A2 0
2 *977:A2 0.000481227
3 *973:A2 0
4 *970:ZN 0.000682981
5 *116:18 0.000739438
6 *116:12 0.000941192
7 *977:A2 *969:A2 3.09818e-06
8 *977:A2 *973:A1 1.34934e-05
9 *977:A2 *977:A1 2.54278e-05
10 *977:A2 *978:A3 3.01487e-05
11 *977:A2 *190:19 0
12 *977:A2 *191:26 3.31158e-05
13 *977:A2 *191:34 6.45405e-05
14 *116:12 *971:A1 6.4328e-05
15 *116:12 *972:A3 1.39839e-05
16 *116:12 *191:34 0
17 *116:18 *932:A1 0.00115983
18 *116:18 *933:A1 0
19 *949:A1 *977:A2 9.3226e-06
20 *949:A2 *977:A2 0.000155874
21 *949:A3 *977:A2 0.000150744
22 *949:A4 *977:A2 0.000588604
23 *1078:D *116:18 0.000463393
24 *115:8 *116:12 5.69319e-05
*RES
1 *970:ZN *116:12 8.82 
2 *116:12 *116:18 12.15 
3 *116:18 *973:A2 4.5 
4 *116:18 *977:A2 9.09 
5 *116:12 *972:A2 4.5 
*END

*D_NET *117 0.000326028
*CONN
*I *972:A3 I *D gf180mcu_fd_sc_mcu7t5v0__nor3_1
*I *971:ZN O *D gf180mcu_fd_sc_mcu7t5v0__aoi21_1
*CAP
1 *972:A3 0.00014903
2 *971:ZN 0.00014903
3 *972:A3 *971:A1 1.39839e-05
4 *116:12 *972:A3 1.39839e-05
*RES
1 *971:ZN *972:A3 10.17 
*END

*D_NET *118 0.00113822
*CONN
*I *974:A2 I *D gf180mcu_fd_sc_mcu7t5v0__nor2_1
*I *973:ZN O *D gf180mcu_fd_sc_mcu7t5v0__xnor2_1
*CAP
1 *974:A2 0.00039095
2 *973:ZN 0.00039095
3 *974:A2 *190:12 0.000116341
4 *974:A2 *230:79 0.000107811
5 *949:A2 *974:A2 0.00013217
*RES
1 *973:ZN *974:A2 12.15 
*END

*D_NET *119 0.0011125
*CONN
*I *989:A3 I *D gf180mcu_fd_sc_mcu7t5v0__nor4_1
*I *976:A3 I *D gf180mcu_fd_sc_mcu7t5v0__nor3_1
*I *975:ZN O *D gf180mcu_fd_sc_mcu7t5v0__nand2_1
*CAP
1 *989:A3 0.000377359
2 *976:A3 0.000439943
3 *975:ZN 6.25842e-05
4 *989:A2 *989:A3 0.000184157
5 *115:19 *976:A3 1.29418e-05
6 *115:19 *989:A3 3.55118e-05
*RES
1 *975:ZN *976:A3 9.45 
2 *976:A3 *989:A3 11.7 
*END

*D_NET *120 0.0100109
*CONN
*I *981:A3 I *D gf180mcu_fd_sc_mcu7t5v0__and3_1
*I *979:A2 I *D gf180mcu_fd_sc_mcu7t5v0__xnor2_1
*I *982:A2 I *D gf180mcu_fd_sc_mcu7t5v0__aoi21_1
*I *978:A2 I *D gf180mcu_fd_sc_mcu7t5v0__nor3_1
*I *976:ZN O *D gf180mcu_fd_sc_mcu7t5v0__nor3_1
*CAP
1 *981:A3 0.00041386
2 *979:A2 0.0004583
3 *982:A2 6.83879e-05
4 *978:A2 0
5 *976:ZN 0.000894797
6 *120:36 0.000997847
7 *120:25 0.000776155
8 *120:18 0.00147688
9 *979:A2 *940:A2 2.20789e-06
10 *979:A2 *982:A1 0
11 *979:A2 *983:A3 5.39206e-05
12 *979:A2 *990:A1 5.62762e-05
13 *979:A2 *990:A2 4.10103e-05
14 *979:A2 *193:34 7.191e-07
15 *979:A2 *230:104 0.00040141
16 *981:A3 *940:A2 8.06824e-06
17 *981:A3 *981:A2 0.000575333
18 *981:A3 *990:A1 0.000462822
19 *981:A3 *990:A3 0.00101598
20 *981:A3 *129:8 8.68281e-06
21 *981:A3 *194:18 3.53362e-05
22 *120:18 *948:A2 0
23 *120:18 *192:8 3.81737e-05
24 *120:18 *192:16 8.68281e-06
25 *120:25 *940:A2 0
26 *120:25 *948:A2 8.7253e-05
27 *120:25 *978:A3 3.01487e-05
28 *120:36 *948:A2 0
29 *120:36 *982:A1 0.000326147
30 *120:36 *230:104 0
31 *952:A3 *120:18 0.000603026
32 *970:A1 *120:18 6.5543e-05
33 *976:A1 *120:18 1.0415e-05
34 *989:A1 *120:18 0.00102705
35 *989:A2 *120:18 7.55765e-06
36 *1084:D *979:A2 5.89295e-05
*RES
1 *976:ZN *120:18 21.51 
2 *120:18 *978:A2 4.5 
3 *120:18 *120:25 3.87 
4 *120:25 *982:A2 4.95 
5 *120:25 *120:36 5.67 
6 *120:36 *979:A2 13.05 
7 *120:36 *981:A3 13.5 
*END

*D_NET *121 0.00191531
*CONN
*I *978:A3 I *D gf180mcu_fd_sc_mcu7t5v0__nor3_1
*I *977:ZN O *D gf180mcu_fd_sc_mcu7t5v0__aoi21_1
*CAP
1 *978:A3 0.000651396
2 *977:ZN 0.000651396
3 *978:A3 *934:A1 0
4 *978:A3 *948:A2 2.9065e-05
5 *978:A3 *977:B 3.02812e-05
6 *978:A3 *191:34 0
7 *978:A3 *230:87 0
8 *949:A4 *978:A3 0.000444513
9 *977:A2 *978:A3 3.01487e-05
10 *1080:D *978:A3 4.83607e-05
11 *120:25 *978:A3 3.01487e-05
*RES
1 *977:ZN *978:A3 22.5 
*END

*D_NET *122 0.000797506
*CONN
*I *980:A2 I *D gf180mcu_fd_sc_mcu7t5v0__nor2_1
*I *979:ZN O *D gf180mcu_fd_sc_mcu7t5v0__xnor2_1
*CAP
1 *980:A2 0.000251603
2 *979:ZN 0.000251603
3 *980:A2 *980:A1 0.000283886
4 *980:A2 *1082:RN 0
5 *980:A2 *230:104 1.0415e-05
*RES
1 *979:ZN *980:A2 11.07 
*END

*D_NET *123 0.00553314
*CONN
*I *984:A2 I *D gf180mcu_fd_sc_mcu7t5v0__nor2_1
*I *985:A2 I *D gf180mcu_fd_sc_mcu7t5v0__and2_1
*I *987:A2 I *D gf180mcu_fd_sc_mcu7t5v0__aoi21_1
*I *983:A2 I *D gf180mcu_fd_sc_mcu7t5v0__nor3_1
*I *981:Z O *D gf180mcu_fd_sc_mcu7t5v0__and3_1
*CAP
1 *984:A2 0.000101036
2 *985:A2 0.000168281
3 *987:A2 0
4 *983:A2 0.000332374
5 *981:Z 0
6 *123:12 0.000395118
7 *123:8 0.000363575
8 *123:4 0.000233587
9 *983:A2 *983:A3 3.12451e-05
10 *983:A2 *990:A2 0.000472105
11 *983:A2 *1084:CLK 0
12 *983:A2 *199:52 0.00134251
13 *984:A2 *986:A2 3.55118e-05
14 *984:A2 *990:A1 5.30888e-06
15 *985:A2 *985:A1 6.18125e-05
16 *985:A2 *986:A1 9.04462e-05
17 *985:A2 *986:A3 8.69576e-05
18 *985:A2 *193:10 3.73774e-06
19 *985:A2 *193:12 7.47548e-06
20 *123:8 *986:A1 0.000145218
21 *123:8 *986:A2 9.33726e-06
22 *123:8 *990:A1 5.82028e-05
23 *123:8 *193:12 8.04533e-06
24 *123:12 *990:A2 7.28823e-05
25 *123:12 *180:16 0.000646148
26 *123:12 *199:52 0.000862226
*RES
1 *981:Z *123:4 4.5 
2 *123:4 *123:8 1.08 
3 *123:8 *123:12 6.75 
4 *123:12 *983:A2 12.96 
5 *123:12 *987:A2 9 
6 *123:8 *985:A2 5.94 
7 *123:4 *984:A2 5.4 
*END

*D_NET *124 0.00196058
*CONN
*I *983:A3 I *D gf180mcu_fd_sc_mcu7t5v0__nor3_1
*I *982:ZN O *D gf180mcu_fd_sc_mcu7t5v0__aoi21_1
*CAP
1 *983:A3 0.000668708
2 *982:ZN 0.000668708
3 *983:A3 *940:A2 0.000168769
4 *983:A3 *1084:CLK 0
5 *983:A3 *230:104 0.000321558
6 *979:A2 *983:A3 5.39206e-05
7 *983:A2 *983:A3 3.12451e-05
8 *1084:D *983:A3 4.76678e-05
*RES
1 *982:ZN *983:A3 23.4 
*END

*D_NET *125 0.00160584
*CONN
*I *986:A2 I *D gf180mcu_fd_sc_mcu7t5v0__nor3_1
*I *984:ZN O *D gf180mcu_fd_sc_mcu7t5v0__nor2_1
*CAP
1 *986:A2 0.000172566
2 *984:ZN 0.000172566
3 *986:A2 *984:A1 0.000213894
4 *986:A2 *985:A1 7.29053e-05
5 *986:A2 *986:A1 3.23563e-06
6 *986:A2 *199:48 0.000101615
7 *986:A2 *199:52 0.000370036
8 *986:A2 *240:61 0.000445488
9 *984:A2 *986:A2 3.55118e-05
10 *1083:D *986:A2 8.68281e-06
11 *123:8 *986:A2 9.33726e-06
*RES
1 *984:ZN *986:A2 20.34 
*END

*D_NET *126 0.000272584
*CONN
*I *986:A3 I *D gf180mcu_fd_sc_mcu7t5v0__nor3_1
*I *985:Z O *D gf180mcu_fd_sc_mcu7t5v0__and2_1
*CAP
1 *986:A3 6.88987e-05
2 *985:Z 6.88987e-05
3 *986:A3 *193:10 4.78286e-05
4 *985:A2 *986:A3 8.69576e-05
*RES
1 *985:Z *986:A3 9.63 
*END

*D_NET *127 0.00195182
*CONN
*I *990:A2 I *D gf180mcu_fd_sc_mcu7t5v0__nor3_1
*I *987:ZN O *D gf180mcu_fd_sc_mcu7t5v0__aoi21_1
*CAP
1 *990:A2 0.000331201
2 *987:ZN 0.000331201
3 *990:A2 *982:A1 0.000703423
4 *979:A2 *990:A2 4.10103e-05
5 *983:A2 *990:A2 0.000472105
6 *123:12 *990:A2 7.28823e-05
*RES
1 *987:ZN *990:A2 21.42 
*END

*D_NET *128 0.00166547
*CONN
*I *989:A4 I *D gf180mcu_fd_sc_mcu7t5v0__nor4_1
*I *988:ZN O *D gf180mcu_fd_sc_mcu7t5v0__nand4_1
*CAP
1 *989:A4 0.000560851
2 *988:ZN 0.000560851
3 *989:A4 *948:A2 0
4 *989:A4 *981:A2 0.000365454
5 *989:A4 *129:8 8.2151e-05
6 *989:A4 *194:12 1.61174e-05
7 *989:A4 *194:16 8.00409e-05
*RES
1 *988:ZN *989:A4 13.41 
*END

*D_NET *129 0.00558095
*CONN
*I *1142:I I *D gf180mcu_fd_sc_mcu7t5v0__dlyb_1
*I *990:A3 I *D gf180mcu_fd_sc_mcu7t5v0__nor3_1
*I *989:ZN O *D gf180mcu_fd_sc_mcu7t5v0__nor4_1
*CAP
1 *1142:I 0.000734149
2 *990:A3 0.000195167
3 *989:ZN 0.000697053
4 *129:8 0.00162637
5 *990:A3 *990:A1 0.0010863
6 *1142:I *199:44 8.35152e-05
7 *129:8 *981:A2 5.15895e-05
8 *981:A3 *990:A3 0.00101598
9 *981:A3 *129:8 8.68281e-06
10 *989:A4 *129:8 8.2151e-05
*RES
1 *989:ZN *129:8 13.77 
2 *129:8 *990:A3 12.51 
3 *129:8 *1142:I 14.76 
*END

*D_NET *130 0.000856158
*CONN
*I *992:A2 I *D gf180mcu_fd_sc_mcu7t5v0__nor2_1
*I *991:ZN O *D gf180mcu_fd_sc_mcu7t5v0__xnor2_1
*CAP
1 *992:A2 8.37871e-05
2 *991:ZN 8.37871e-05
3 *992:A2 *991:A2 0.000271242
4 *992:A2 *231:23 4.96595e-05
5 *992:A2 *236:12 0.000222861
6 *951:A4 *992:A2 3.22348e-05
7 *1085:D *992:A2 0.000112586
*RES
1 *991:ZN *992:A2 10.53 
*END

*D_NET *131 0.00308995
*CONN
*I *995:A2 I *D gf180mcu_fd_sc_mcu7t5v0__nor3_1
*I *993:ZN O *D gf180mcu_fd_sc_mcu7t5v0__aoi21_1
*CAP
1 *995:A2 0.000475395
2 *993:ZN 0.000475395
3 *995:A2 *936:A1 0.000554286
4 *995:A2 *993:A1 1.73538e-05
5 *995:A2 *993:A2 5.09573e-05
6 *995:A2 *994:A1 0.000158798
7 *995:A2 *995:A1 0.000204502
8 *995:A2 *1000:A1 0.000266954
9 *995:A2 *1085:RN 2.97876e-05
10 *995:A2 *1086:RN 8.429e-05
11 *995:A2 *182:10 6.00445e-05
12 *995:A2 *183:17 0
13 *995:A2 *231:6 0.000365114
14 *995:A2 *231:12 0.000101615
15 *995:A2 *236:24 0.000245458
*RES
1 *993:ZN *995:A2 23.58 
*END

*D_NET *132 0.0112041
*CONN
*I *998:A2 I *D gf180mcu_fd_sc_mcu7t5v0__aoi21_1
*I *999:A3 I *D gf180mcu_fd_sc_mcu7t5v0__and3_1
*I *996:B1 I *D gf180mcu_fd_sc_mcu7t5v0__oai221_1
*I *997:A2 I *D gf180mcu_fd_sc_mcu7t5v0__aoi21_1
*I *995:A3 I *D gf180mcu_fd_sc_mcu7t5v0__nor3_1
*I *994:Z O *D gf180mcu_fd_sc_mcu7t5v0__and3_1
*CAP
1 *998:A2 0.000259999
2 *999:A3 0
3 *996:B1 0
4 *997:A2 0.000438151
5 *995:A3 5.94251e-05
6 *994:Z 0.000317963
7 *132:25 0.000637988
8 *132:23 0.000241477
9 *132:19 0.000460089
10 *132:8 0.000535837
11 *995:A3 *936:A1 0.000231436
12 *997:A2 *997:A1 7.8687e-05
13 *997:A2 *184:38 0.00104783
14 *997:A2 *196:15 0
15 *997:A2 *200:16 2.55518e-05
16 *998:A2 *998:A1 0.000264357
17 *998:A2 *1088:CLK 2.89427e-06
18 *998:A2 *185:14 0.000121287
19 *998:A2 *200:59 4.50076e-05
20 *132:8 *931:A2 0
21 *132:8 *936:A1 0.00107263
22 *132:19 *1086:RN 0.000118274
23 *132:19 *185:14 1.3026e-05
24 *132:23 *999:A2 0.000186096
25 *132:23 *184:47 3.01487e-05
26 *132:23 *200:59 6.03144e-06
27 *132:25 *999:A2 3.01487e-05
28 *132:25 *184:38 3.55118e-05
29 *132:25 *184:47 0.00143203
30 *954:A2 *997:A2 0.000700984
31 *956:B *997:A2 0.000682888
32 *1086:D *998:A2 6.26041e-05
33 *1086:D *132:19 0.000947956
34 *1086:D *132:23 8.49143e-05
35 *1087:D *997:A2 0.000207732
36 *1097:I *997:A2 1.24166e-05
37 *1098:I *995:A3 1.10944e-05
38 *1098:I *997:A2 0.00040241
39 *1098:I *132:8 3.93918e-05
40 *1098:I *132:25 0.000322099
41 *83:12 *997:A2 2.70125e-05
42 *103:16 *997:A2 1.07281e-05
*RES
1 *994:Z *132:8 7.92 
2 *132:8 *995:A3 5.13 
3 *132:8 *132:19 6.93 
4 *132:19 *132:23 5.13 
5 *132:23 *132:25 3.87 
6 *132:25 *997:A2 20.25 
7 *132:25 *996:B1 4.5 
8 *132:23 *999:A3 4.5 
9 *132:19 *998:A2 11.7 
*END

*D_NET *133 0.00317017
*CONN
*I *997:B I *D gf180mcu_fd_sc_mcu7t5v0__aoi21_1
*I *996:ZN O *D gf180mcu_fd_sc_mcu7t5v0__oai221_1
*CAP
1 *997:B 0.000327404
2 *996:ZN 0.000327404
3 *954:A1 *997:B 1.07374e-05
4 *956:B *997:B 0.000185074
5 *996:A1 *997:B 0.000794834
6 *996:A2 *997:B 0
7 *996:C *997:B 0.000593964
8 *1098:I *997:B 5.59262e-05
9 *103:16 *997:B 0.000874831
*RES
1 *996:ZN *997:B 14.49 
*END

*D_NET *134 0.00125857
*CONN
*I *1000:A2 I *D gf180mcu_fd_sc_mcu7t5v0__nor3_1
*I *998:ZN O *D gf180mcu_fd_sc_mcu7t5v0__aoi21_1
*CAP
1 *1000:A2 0.000591972
2 *998:ZN 0.000591972
3 *1000:A2 *1000:A3 0
4 *1000:A2 *1088:RN 0
5 *1000:A2 *1088:CLK 7.46268e-05
*RES
1 *998:ZN *1000:A2 21.96 
*END

*D_NET *135 0.0016729
*CONN
*I *1000:A3 I *D gf180mcu_fd_sc_mcu7t5v0__nor3_1
*I *999:Z O *D gf180mcu_fd_sc_mcu7t5v0__and3_1
*CAP
1 *1000:A3 0.000400871
2 *999:Z 0.000400871
3 *1000:A3 *931:A2 4.9993e-05
4 *1000:A3 *1088:CLK 0.0001078
5 *1000:A3 *200:59 8.33579e-05
6 *1000:A2 *1000:A3 0
7 *1086:D *1000:A3 0.000133222
8 *1088:D *1000:A3 0.000496785
*RES
1 *999:Z *1000:A3 12.78 
*END

*D_NET *136 0.00508715
*CONN
*I *1020:A1 I *D gf180mcu_fd_sc_mcu7t5v0__and4_1
*I *1056:A2 I *D gf180mcu_fd_sc_mcu7t5v0__oai211_1
*I *1001:ZN O *D gf180mcu_fd_sc_mcu7t5v0__nand2_1
*CAP
1 *1020:A1 0.000195999
2 *1056:A2 0.000200552
3 *1001:ZN 0.000396552
4 *1020:A1 *1003:A1 5.97457e-06
5 *1020:A1 *1022:A1 0.000998309
6 *1020:A1 *145:14 0.000299714
7 *1020:A1 *177:21 3.01487e-05
8 *1020:A1 *178:25 0.00168875
9 *1056:A1 *1056:A2 0.000182206
10 *38:25 *1056:A2 2.63343e-05
11 *38:36 *1056:A2 0.000148806
12 *39:26 *1020:A1 0.000236567
13 *39:32 *1056:A2 4.78286e-05
14 *74:14 *1020:A1 0.000365445
15 *74:14 *1056:A2 0.000223407
16 *75:15 *1020:A1 4.05591e-05
*RES
1 *1001:ZN *1056:A2 20.16 
2 *1001:ZN *1020:A1 23.58 
*END

*D_NET *137 0.000447412
*CONN
*I *1004:B1 I *D gf180mcu_fd_sc_mcu7t5v0__aoi22_1
*I *1002:ZN O *D gf180mcu_fd_sc_mcu7t5v0__nand2_1
*CAP
1 *1004:B1 0.000100705
2 *1002:ZN 0.000100705
3 *1004:B1 *1004:B2 5.3819e-05
4 *1002:A1 *1004:B1 0.000192183
*RES
1 *1002:ZN *1004:B1 10.26 
*END

*D_NET *138 0.000805835
*CONN
*I *1004:B2 I *D gf180mcu_fd_sc_mcu7t5v0__aoi22_1
*I *1003:ZN O *D gf180mcu_fd_sc_mcu7t5v0__aoi211_1
*CAP
1 *1004:B2 0.000221945
2 *1003:ZN 0.000221945
3 *1004:B2 *1002:A2 3.22122e-05
4 *1004:B2 *1003:A1 3.01487e-05
5 *1002:A1 *1004:B2 0
6 *1003:C *1004:B2 9.90941e-05
7 *1004:B1 *1004:B2 5.3819e-05
8 *1007:A3 *1004:B2 4.29496e-05
9 *40:54 *1004:B2 0.00010372
*RES
1 *1003:ZN *1004:B2 11.34 
*END

*D_NET *139 0.00301529
*CONN
*I *1006:A2 I *D gf180mcu_fd_sc_mcu7t5v0__nand2_1
*I *1012:B I *D gf180mcu_fd_sc_mcu7t5v0__aoi21_1
*I *1005:ZN O *D gf180mcu_fd_sc_mcu7t5v0__aoi211_1
*CAP
1 *1006:A2 9.34033e-05
2 *1012:B 0.000168501
3 *1005:ZN 9.52092e-05
4 *139:10 0.000357114
5 *1006:A2 *241:38 0.00010803
6 *1006:A2 *241:44 2.70125e-05
7 *1012:B *925:I 4.6613e-06
8 *1012:B *1012:A2 1.69023e-06
9 *1012:B *146:18 4.51604e-05
10 *139:10 *1005:C 0.000557083
11 *139:10 *241:44 0.000112982
12 *1006:A1 *1006:A2 0.000139597
13 *1058:D *1006:A2 0.000125208
14 *1058:D *1012:B 2.08301e-05
15 *1058:D *139:10 0.000385445
16 *1137:I *1012:B 0.000206927
17 *1137:I *139:10 0.00050482
18 *38:16 *139:10 6.16184e-05
*RES
1 *1005:ZN *139:10 11.88 
2 *139:10 *1012:B 10.53 
3 *139:10 *1006:A2 10.35 
*END

*D_NET *140 0.00163371
*CONN
*I *1019:A1 I *D gf180mcu_fd_sc_mcu7t5v0__aoi21_1
*I *1006:ZN O *D gf180mcu_fd_sc_mcu7t5v0__nand2_1
*CAP
1 *1019:A1 0.000439941
2 *1006:ZN 0.000439941
3 *1019:A1 *1012:A2 0.000126898
4 *1019:A1 *146:18 0.000265818
5 *1019:A1 *237:8 0.000284981
6 *1006:A1 *1019:A1 2.30981e-05
7 *1058:D *1019:A1 5.30338e-05
*RES
1 *1006:ZN *1019:A1 12.87 
*END

*D_NET *141 0.00209709
*CONN
*I *1011:B I *D gf180mcu_fd_sc_mcu7t5v0__oai31_1
*I *1007:ZN O *D gf180mcu_fd_sc_mcu7t5v0__nor3_1
*CAP
1 *1011:B 0.000413518
2 *1007:ZN 0.000413518
3 *1011:B *1003:A2 9.85004e-05
4 *1011:B *1011:A2 0
5 *1011:B *1027:A1 0
6 *1011:B *1072:RN 0
7 *1011:B *1135:I 5.3289e-05
8 *1011:B *233:10 0.00108606
9 *1007:A1 *1011:B 3.22122e-05
*RES
1 *1007:ZN *1011:B 13.5 
*END

*D_NET *142 0.00332344
*CONN
*I *1011:A1 I *D gf180mcu_fd_sc_mcu7t5v0__oai31_1
*I *1027:A1 I *D gf180mcu_fd_sc_mcu7t5v0__oai31_1
*I *1050:A1 I *D gf180mcu_fd_sc_mcu7t5v0__oai32_1
*I *1008:Z O *D gf180mcu_fd_sc_mcu7t5v0__xor2_1
*CAP
1 *1011:A1 9.91258e-05
2 *1027:A1 6.19612e-05
3 *1050:A1 0.000157739
4 *1008:Z 0.000132702
5 *142:21 0.000247879
6 *142:10 0.000377233
7 *1011:A1 *1011:A2 0.000127736
8 *1011:A1 *1072:RN 0
9 *1011:A1 *233:10 7.01651e-05
10 *1011:A1 *233:14 1.51153e-05
11 *1027:A1 *233:14 4.83522e-05
12 *1050:A1 *1050:A2 0.000303984
13 *1050:A1 *143:15 0.000202354
14 *1050:A1 *233:14 0.000115511
15 *142:10 *922:I 0.00021821
16 *142:10 *1069:RN 0.000635861
17 *142:10 *201:8 0
18 *142:21 *1011:A2 3.22348e-05
19 *142:21 *143:15 0.000425752
20 *142:21 *233:14 5.15282e-05
21 *1011:B *1027:A1 0
22 *76:16 *1050:A1 0
*RES
1 *1008:Z *142:10 15.57 
2 *142:10 *1050:A1 6.66 
3 *142:10 *142:21 1.35 
4 *142:21 *1027:A1 5.22 
5 *142:21 *1011:A1 5.67 
*END

*D_NET *143 0.00218379
*CONN
*I *1011:A2 I *D gf180mcu_fd_sc_mcu7t5v0__oai31_1
*I *1027:A2 I *D gf180mcu_fd_sc_mcu7t5v0__oai31_1
*I *1050:A2 I *D gf180mcu_fd_sc_mcu7t5v0__oai32_1
*I *1009:Z O *D gf180mcu_fd_sc_mcu7t5v0__and2_1
*CAP
1 *1011:A2 0.00011814
2 *1027:A2 0
3 *1050:A2 0.000148776
4 *1009:Z 0
5 *143:15 0.000249455
6 *143:4 0.000280091
7 *1011:A2 *1009:A1 2.26729e-05
8 *1011:A2 *1011:A3 3.1559e-05
9 *1011:A2 *1027:A3 0.00011189
10 *1011:A2 *144:19 2.65444e-06
11 *143:15 *1009:A1 5.53273e-05
12 *1009:A2 *1050:A2 5.36871e-05
13 *1010:A2 *143:15 6.99911e-06
14 *1011:A1 *1011:A2 0.000127736
15 *1011:B *1011:A2 0
16 *1050:A1 *1050:A2 0.000303984
17 *1050:A1 *143:15 0.000202354
18 *76:16 *1050:A2 2.65444e-06
19 *76:45 *1050:A2 7.10691e-06
20 *76:45 *143:15 7.191e-07
21 *142:21 *1011:A2 3.22348e-05
22 *142:21 *143:15 0.000425752
*RES
1 *1009:Z *143:4 4.5 
2 *143:4 *1050:A2 6.12 
3 *143:4 *143:15 1.71 
4 *143:15 *1027:A2 4.5 
5 *143:15 *1011:A2 6.03 
*END

*D_NET *144 0.00252396
*CONN
*I *1011:A3 I *D gf180mcu_fd_sc_mcu7t5v0__oai31_1
*I *1027:A3 I *D gf180mcu_fd_sc_mcu7t5v0__oai31_1
*I *1050:A3 I *D gf180mcu_fd_sc_mcu7t5v0__oai32_1
*I *1010:ZN O *D gf180mcu_fd_sc_mcu7t5v0__oai21_1
*CAP
1 *1011:A3 4.93713e-05
2 *1027:A3 0.000102918
3 *1050:A3 8.04179e-05
4 *1010:ZN 0
5 *144:19 0.000309647
6 *144:4 0.000237776
7 *1011:A3 *1072:RN 1.6462e-05
8 *1050:A3 *1072:RN 7.65425e-05
9 *1050:A3 *239:76 0.000478014
10 *144:19 *1009:A1 8.81508e-05
11 *144:19 *1010:A1 9.84908e-05
12 *144:19 *1072:RN 0.000108499
13 *1010:A2 *1050:A3 0.000486059
14 *1011:A2 *1011:A3 3.1559e-05
15 *1011:A2 *1027:A3 0.00011189
16 *1011:A2 *144:19 2.65444e-06
17 *76:16 *1050:A3 3.01487e-05
18 *76:45 *1050:A3 0.000215362
*RES
1 *1010:ZN *144:4 4.5 
2 *144:4 *1050:A3 6.39 
3 *144:4 *144:19 1.8 
4 *144:19 *1027:A3 5.22 
5 *144:19 *1011:A3 4.95 
*END

*D_NET *145 0.00769365
*CONN
*I *1020:A2 I *D gf180mcu_fd_sc_mcu7t5v0__and4_1
*I *1023:A1 I *D gf180mcu_fd_sc_mcu7t5v0__and4_1
*I *1013:A1 I *D gf180mcu_fd_sc_mcu7t5v0__nand2_1
*I *1018:A1 I *D gf180mcu_fd_sc_mcu7t5v0__nand3_1
*I *1011:ZN O *D gf180mcu_fd_sc_mcu7t5v0__oai31_1
*CAP
1 *1020:A2 0
2 *1023:A1 8.56645e-05
3 *1013:A1 0
4 *1018:A1 8.06634e-05
5 *1011:ZN 0.00245866
6 *145:20 0.000260582
7 *145:16 0.000306807
8 *145:14 0.00249989
9 *1018:A1 *1013:A2 0.000302466
10 *1018:A1 *1020:A4 0
11 *1018:A1 *146:50 0
12 *1023:A1 *1020:A4 9.85004e-05
13 *1023:A1 *1023:A2 0.000469308
14 *1023:A1 *146:50 9.85004e-05
15 *1023:A1 *147:8 8.35196e-05
16 *145:14 *1020:A4 0.000253683
17 *145:14 *226:14 0
18 *145:14 *240:118 0
19 *145:16 *1020:A4 0.000135496
20 *145:20 *1013:A2 2.84815e-05
21 *145:20 *1020:A4 0.000101624
22 *145:20 *146:50 6.27096e-05
23 *1020:A1 *145:14 0.000299714
24 *75:15 *145:14 1.25592e-05
25 *75:19 *145:14 3.08806e-06
26 *75:19 *145:16 8.76817e-06
27 *75:19 *145:20 4.2964e-05
*RES
1 *1011:ZN *145:14 33.3 
2 *145:14 *145:16 0.45 
3 *145:16 *145:20 6.03 
4 *145:20 *1018:A1 5.31 
5 *145:20 *1013:A1 4.5 
6 *145:16 *1023:A1 10.53 
7 *145:14 *1020:A2 9 
*END

*D_NET *146 0.00546825
*CONN
*I *1023:A2 I *D gf180mcu_fd_sc_mcu7t5v0__and4_1
*I *1020:A3 I *D gf180mcu_fd_sc_mcu7t5v0__and4_1
*I *1013:A2 I *D gf180mcu_fd_sc_mcu7t5v0__nand2_1
*I *1018:A2 I *D gf180mcu_fd_sc_mcu7t5v0__nand3_1
*I *1012:ZN O *D gf180mcu_fd_sc_mcu7t5v0__aoi21_1
*CAP
1 *1023:A2 4.03543e-05
2 *1020:A3 0
3 *1013:A2 0.000115538
4 *1018:A2 0
5 *1012:ZN 0.000472651
6 *146:50 0.000285749
7 *146:27 0.000391382
8 *146:18 0.000503099
9 *1013:A2 *1019:A2 3.64412e-05
10 *1023:A2 *1017:A2 0.000141002
11 *146:18 *1012:A2 8.45762e-05
12 *146:18 *1017:A1 0
13 *146:18 *1019:A2 8.02728e-05
14 *146:18 *226:8 0
15 *146:18 *237:8 0.000284981
16 *146:18 *240:8 0.00030693
17 *146:27 *1017:A1 0
18 *146:50 *1017:A1 1.0415e-05
19 *146:50 *1017:A2 0.000137171
20 *146:50 *1018:A3 0.000255088
21 *146:50 *1020:A4 3.99885e-05
22 *146:50 *1023:A4 7.55765e-06
23 *146:50 *226:8 0
24 *146:50 *240:8 0
25 *146:50 *240:118 0
26 *1012:B *146:18 4.51604e-05
27 *1018:A1 *1013:A2 0.000302466
28 *1018:A1 *146:50 0
29 *1019:A1 *146:18 0.000265818
30 *1019:B *1013:A2 0.000127736
31 *1019:B *146:27 2.65444e-06
32 *1023:A1 *1023:A2 0.000469308
33 *1023:A1 *146:50 9.85004e-05
34 *1024:C *1023:A2 0.000169524
35 *1058:D *146:18 0.000672543
36 *1137:I *146:18 3.01527e-05
37 *145:20 *1013:A2 2.84815e-05
38 *145:20 *146:50 6.27096e-05
*RES
1 *1012:ZN *146:18 19.35 
2 *146:18 *1018:A2 4.5 
3 *146:18 *146:27 4.77 
4 *146:27 *1013:A2 10.71 
5 *146:27 *146:50 7.2 
6 *146:50 *1020:A3 4.5 
7 *146:50 *1023:A2 5.85 
*END

*D_NET *147 0.00122996
*CONN
*I *1024:A2 I *D gf180mcu_fd_sc_mcu7t5v0__aoi211_1
*I *1021:A2 I *D gf180mcu_fd_sc_mcu7t5v0__aoi211_1
*I *1013:ZN O *D gf180mcu_fd_sc_mcu7t5v0__nand2_1
*CAP
1 *1024:A2 0.000227312
2 *1021:A2 0
3 *1013:ZN 0.000201144
4 *147:8 0.000428456
5 *147:8 *1020:A4 1.07374e-05
6 *147:8 *1021:B 0.000241321
7 *1019:B *147:8 0
8 *1021:C *147:8 2.18528e-05
9 *1023:A1 *147:8 8.35196e-05
10 *1024:C *1024:A2 8.15289e-06
11 *1024:C *147:8 2.40587e-06
12 *1059:D *1024:A2 0
13 *1060:D *1024:A2 5.06031e-06
*RES
1 *1013:ZN *147:8 6.48 
2 *147:8 *1021:A2 4.5 
3 *147:8 *1024:A2 5.94 
*END

*D_NET *148 0.002216
*CONN
*I *1023:A3 I *D gf180mcu_fd_sc_mcu7t5v0__and4_1
*I *1017:A2 I *D gf180mcu_fd_sc_mcu7t5v0__nand3_1
*I *1014:ZN O *D gf180mcu_fd_sc_mcu7t5v0__nand4_1
*CAP
1 *1023:A3 0
2 *1017:A2 0.000197188
3 *1014:ZN 0.000159299
4 *148:14 0.000356487
5 *1017:A2 *1023:A4 0.000334099
6 *1017:A2 *177:21 5.22596e-06
7 *148:14 *1024:B 0
8 *148:14 *177:21 0.000299869
9 *918:I *148:14 5.53168e-05
10 *1021:A1 *148:14 7.84385e-05
11 *1023:A2 *1017:A2 0.000141002
12 *1024:C *1017:A2 0.000232503
13 *1024:C *148:14 0.000219401
14 *146:50 *1017:A2 0.000137171
*RES
1 *1014:ZN *148:14 15.57 
2 *148:14 *1017:A2 7.2 
3 *148:14 *1023:A3 4.5 
*END

*D_NET *149 0.00282396
*CONN
*I *1022:A3 I *D gf180mcu_fd_sc_mcu7t5v0__nand3_1
*I *1015:ZN O *D gf180mcu_fd_sc_mcu7t5v0__nand2_1
*CAP
1 *1022:A3 0.00010938
2 *1015:ZN 0.00010938
3 *1022:A3 *178:25 0.000974129
4 *1022:A3 *178:38 0.000416072
5 *39:12 *1022:A3 0.000240871
6 *39:20 *1022:A3 0.000974129
*RES
1 *1015:ZN *1022:A3 12.78 
*END

*D_NET *150 0.00161049
*CONN
*I *1020:A4 I *D gf180mcu_fd_sc_mcu7t5v0__and4_1
*I *1017:A3 I *D gf180mcu_fd_sc_mcu7t5v0__nand3_1
*I *1016:ZN O *D gf180mcu_fd_sc_mcu7t5v0__nand4_1
*CAP
1 *1020:A4 0.000163105
2 *1017:A3 2.08592e-05
3 *1016:ZN 0
4 *150:4 0.000183964
5 *1017:A3 *1022:A1 0.000294421
6 *1017:A3 *1023:A4 0.000294421
7 *1020:A4 *1018:A3 1.36885e-05
8 *1020:A4 *226:14 0
9 *1018:A1 *1020:A4 0
10 *1019:B *1020:A4 0
11 *1023:A1 *1020:A4 9.85004e-05
12 *145:14 *1020:A4 0.000253683
13 *145:16 *1020:A4 0.000135496
14 *145:20 *1020:A4 0.000101624
15 *146:50 *1020:A4 3.99885e-05
16 *147:8 *1020:A4 1.07374e-05
*RES
1 *1016:ZN *150:4 4.5 
2 *150:4 *1017:A3 5.31 
3 *150:4 *1020:A4 15.3 
*END

*D_NET *151 0.000388596
*CONN
*I *1018:A3 I *D gf180mcu_fd_sc_mcu7t5v0__nand3_1
*I *1017:ZN O *D gf180mcu_fd_sc_mcu7t5v0__nand3_1
*CAP
1 *1018:A3 4.60136e-05
2 *1017:ZN 4.60136e-05
3 *1018:A3 *240:118 2.77926e-05
4 *1020:A4 *1018:A3 1.36885e-05
5 *146:50 *1018:A3 0.000255088
*RES
1 *1017:ZN *1018:A3 18.81 
*END

*D_NET *152 0.000546691
*CONN
*I *1019:A2 I *D gf180mcu_fd_sc_mcu7t5v0__aoi21_1
*I *1018:ZN O *D gf180mcu_fd_sc_mcu7t5v0__nand3_1
*CAP
1 *1019:A2 0.000211197
2 *1018:ZN 0.000211197
3 *1019:A2 *240:8 7.584e-06
4 *1013:A2 *1019:A2 3.64412e-05
5 *146:18 *1019:A2 8.02728e-05
*RES
1 *1018:ZN *1019:A2 19.53 
*END

*D_NET *153 0.000527577
*CONN
*I *1021:B I *D gf180mcu_fd_sc_mcu7t5v0__aoi211_1
*I *1020:Z O *D gf180mcu_fd_sc_mcu7t5v0__and4_1
*CAP
1 *1021:B 0.000136676
2 *1020:Z 0.000136676
3 *1019:B *1021:B 1.00099e-05
4 *1021:C *1021:B 2.89427e-06
5 *147:8 *1021:B 0.000241321
*RES
1 *1020:Z *1021:B 10.26 
*END

*D_NET *154 0.00169766
*CONN
*I *1023:A4 I *D gf180mcu_fd_sc_mcu7t5v0__and4_1
*I *1022:ZN O *D gf180mcu_fd_sc_mcu7t5v0__nand3_1
*CAP
1 *1023:A4 0.000257513
2 *1022:ZN 0.000257513
3 *1023:A4 *1017:A1 6.60586e-05
4 *1023:A4 *1022:A1 0.000238588
5 *1023:A4 *177:21 0.000194087
6 *1023:A4 *226:8 4.78178e-05
7 *1017:A2 *1023:A4 0.000334099
8 *1017:A3 *1023:A4 0.000294421
9 *146:50 *1023:A4 7.55765e-06
*RES
1 *1022:ZN *1023:A4 12.69 
*END

*D_NET *155 0.00102103
*CONN
*I *1024:B I *D gf180mcu_fd_sc_mcu7t5v0__aoi211_1
*I *1023:Z O *D gf180mcu_fd_sc_mcu7t5v0__and4_1
*CAP
1 *1024:B 0.000249248
2 *1023:Z 0.000249248
3 *1024:B *1014:A2 2.53817e-05
4 *1024:B *177:21 0.000283695
5 *1024:B *178:38 1.61174e-05
6 *1024:C *1024:B 4.3342e-06
7 *1060:D *1024:B 9.65355e-06
8 *39:12 *1024:B 1.38253e-05
9 *40:14 *1024:B 0.000169524
10 *148:14 *1024:B 0
*RES
1 *1023:Z *1024:B 11.34 
*END

*D_NET *156 0.00931622
*CONN
*I *1028:A1 I *D gf180mcu_fd_sc_mcu7t5v0__nand2_1
*I *1039:S I *D gf180mcu_fd_sc_mcu7t5v0__mux2_2
*I *1136:I I *D gf180mcu_fd_sc_mcu7t5v0__buf_2
*I *1045:A2 I *D gf180mcu_fd_sc_mcu7t5v0__nor2_1
*I *1037:S I *D gf180mcu_fd_sc_mcu7t5v0__mux2_2
*I *1042:A2 I *D gf180mcu_fd_sc_mcu7t5v0__nor2_1
*I *1025:ZN O *D gf180mcu_fd_sc_mcu7t5v0__nand2_1
*CAP
1 *1028:A1 0
2 *1039:S 0.00108625
3 *1136:I 0
4 *1045:A2 0
5 *1037:S 0.000228503
6 *1042:A2 2.37395e-05
7 *1025:ZN 0.00044387
8 *156:26 0.000823461
9 *156:16 0.000873479
10 *156:14 0.000374295
11 *156:12 0.00143366
12 *156:6 0.000719249
13 *1037:S *1029:I0 0
14 *1037:S *1037:I0 5.97457e-06
15 *1039:S *1039:I0 4.83522e-05
16 *1039:S *1040:I1 0
17 *1039:S *1044:I0 1.56779e-05
18 *1039:S *1046:A1 0
19 *1039:S *229:10 3.27461e-05
20 *1039:S *232:14 0
21 *1039:S *255:8 1.27202e-05
22 *1039:S *256:8 7.55765e-06
23 *1042:A2 *1043:A2 1.61174e-05
24 *156:6 *1061:SETN 0.00034119
25 *156:6 *159:8 0.000212124
26 *156:6 *239:49 9.98816e-05
27 *156:12 *159:8 1.61174e-05
28 *156:12 *239:49 9.3523e-05
29 *156:14 *1046:A1 0
30 *156:14 *229:10 1.54403e-05
31 *156:14 *229:14 6.17613e-06
32 *156:16 *1043:A1 0
33 *156:16 *1046:A1 0
34 *156:16 *229:14 5.26858e-05
35 *156:26 *1029:I0 0
36 *156:26 *1043:A2 0.00056779
37 *156:26 *1044:S 0.000322166
38 *156:26 *1066:CLK 5.1072e-06
39 *156:26 *1067:CLK 0.000834
40 *156:26 *198:36 0.000383427
41 *156:26 *229:14 4.58283e-05
42 *156:26 *229:27 0.000175108
43 *1068:D *156:16 0
44 *1068:D *156:26 0
*RES
1 *1025:ZN *156:6 8.91 
2 *156:6 *156:12 6.48 
3 *156:12 *156:14 0.63 
4 *156:14 *156:16 2.07 
5 *156:16 *156:26 11.7 
6 *156:26 *1042:A2 4.77 
7 *156:26 *1037:S 6.03 
8 *156:16 *1045:A2 9 
9 *156:14 *1136:I 9 
10 *156:12 *1039:S 16.02 
11 *156:6 *1028:A1 4.5 
*END

*D_NET *157 0.00218138
*CONN
*I *1135:I I *D gf180mcu_fd_sc_mcu7t5v0__clkbuf_1
*I *1055:A2 I *D gf180mcu_fd_sc_mcu7t5v0__nand2_1
*I *1026:ZN O *D gf180mcu_fd_sc_mcu7t5v0__nor4_1
*CAP
1 *1135:I 0.000190679
2 *1055:A2 1.96015e-05
3 *1026:ZN 0.000198887
4 *157:6 0.000409167
5 *1055:A2 *1003:A2 0.000256882
6 *1055:A2 *225:10 0.000518371
7 *1135:I *1003:A2 5.97457e-06
8 *1135:I *1057:B 1.61174e-05
9 *1135:I *233:10 1.07374e-05
10 *1135:I *250:30 0
11 *157:6 *1056:B 6.0284e-05
12 *157:6 *1056:C 0.000183662
13 *157:6 *1057:A1 0.000163704
14 *157:6 *1057:B 8.16641e-05
15 *1011:B *1135:I 5.3289e-05
16 *1072:D *157:6 1.23607e-05
*RES
1 *1026:ZN *157:6 6.75 
2 *157:6 *1055:A2 14.85 
3 *157:6 *1135:I 5.94 
*END

*D_NET *158 0.000332209
*CONN
*I *1141:I I *D gf180mcu_fd_sc_mcu7t5v0__clkbuf_1
*I *1027:ZN O *D gf180mcu_fd_sc_mcu7t5v0__oai31_1
*CAP
1 *1141:I 0.000115392
2 *1027:ZN 0.000115392
3 *1141:I *1069:RN 0.000101424
*RES
1 *1027:ZN *1141:I 19.17 
*END

*D_NET *159 0.00207007
*CONN
*I *1134:I I *D gf180mcu_fd_sc_mcu7t5v0__clkbuf_3
*I *1030:S I *D gf180mcu_fd_sc_mcu7t5v0__mux2_2
*I *1028:ZN O *D gf180mcu_fd_sc_mcu7t5v0__nand2_1
*CAP
1 *1134:I 0
2 *1030:S 0.000150505
3 *1028:ZN 0.000318752
4 *159:8 0.000469257
5 *1030:S *1029:I0 0
6 *1030:S *1030:I0 0.00090332
7 *159:8 *1029:I0 0
8 *156:6 *159:8 0.000212124
9 *156:12 *159:8 1.61174e-05
*RES
1 *1028:ZN *159:8 7.02 
2 *159:8 *1030:S 15.75 
3 *159:8 *1134:I 4.5 
*END

*D_NET *160 0.000387246
*CONN
*I *1030:I1 I *D gf180mcu_fd_sc_mcu7t5v0__mux2_2
*I *1029:Z O *D gf180mcu_fd_sc_mcu7t5v0__mux2_2
*CAP
1 *1030:I1 0.000178663
2 *1029:Z 0.000178663
3 *1030:I1 *198:30 2.99208e-05
*RES
1 *1029:Z *1030:I1 10.26 
*END

*D_NET *161 0.000485367
*CONN
*I *1032:I1 I *D gf180mcu_fd_sc_mcu7t5v0__mux2_2
*I *1031:Z O *D gf180mcu_fd_sc_mcu7t5v0__mux2_2
*CAP
1 *1032:I1 0.000207038
2 *1031:Z 0.000207038
3 *1032:I1 *1029:S 0
4 *1032:I1 *1031:I1 7.55765e-06
5 *1032:I1 *1032:S 1.56779e-05
6 *1032:I1 *1034:I0 4.80547e-05
*RES
1 *1031:Z *1032:I1 10.44 
*END

*D_NET *162 0.0020249
*CONN
*I *1034:I1 I *D gf180mcu_fd_sc_mcu7t5v0__mux2_2
*I *1033:Z O *D gf180mcu_fd_sc_mcu7t5v0__mux2_2
*CAP
1 *1034:I1 0.000590352
2 *1033:Z 0.000590352
3 *1034:I1 *1033:I1 2.31089e-05
4 *1034:I1 *1065:CLK 3.12451e-05
5 *1034:I1 *1076:RN 0.000473735
6 *1034:I1 *197:20 0
7 *1034:I1 *197:22 0.000164679
8 *1063:D *1034:I1 0.000151427
*RES
1 *1033:Z *1034:I1 22.68 
*END

*D_NET *163 0.00268156
*CONN
*I *1036:I1 I *D gf180mcu_fd_sc_mcu7t5v0__mux2_2
*I *1035:Z O *D gf180mcu_fd_sc_mcu7t5v0__mux2_2
*CAP
1 *1036:I1 0.00103991
2 *1035:Z 0.00103991
3 *1036:I1 *1035:I1 7.07604e-05
4 *1036:I1 *1036:S 0
5 *1036:I1 *1038:I0 0.00025171
6 *1036:I1 *1064:CLK 0.000231442
7 *1064:D *1036:I1 4.78286e-05
8 *1065:D *1036:I1 0
*RES
1 *1035:Z *1036:I1 26.82 
*END

*D_NET *164 0.00184201
*CONN
*I *1038:I1 I *D gf180mcu_fd_sc_mcu7t5v0__mux2_2
*I *1037:Z O *D gf180mcu_fd_sc_mcu7t5v0__mux2_2
*CAP
1 *1038:I1 0.000921006
2 *1037:Z 0.000921006
3 *1038:I1 *1042:A1 0
*RES
1 *1037:Z *1038:I1 24.93 
*END

*D_NET *165 0.0017844
*CONN
*I *1040:I1 I *D gf180mcu_fd_sc_mcu7t5v0__mux2_2
*I *1039:Z O *D gf180mcu_fd_sc_mcu7t5v0__mux2_2
*CAP
1 *1040:I1 0.000608437
2 *1039:Z 0.000608437
3 *1040:I1 *1040:I0 3.88459e-05
4 *1040:I1 *1099:I 2.54214e-05
5 *1040:I1 *229:10 0.000145143
6 *1040:I1 *229:14 4.52764e-05
7 *1040:I1 *239:23 4.03724e-05
8 *1040:I1 *239:27 8.69455e-06
9 *1040:I1 *239:49 3.52246e-05
10 *1040:I1 *255:8 0.000228548
11 *1039:S *1040:I1 0
*RES
1 *1039:Z *1040:I1 22.5 
*END

*D_NET *166 0.0059519
*CONN
*I *1046:A2 I *D gf180mcu_fd_sc_mcu7t5v0__aoi21_1
*I *1043:A1 I *D gf180mcu_fd_sc_mcu7t5v0__nor2_1
*I *1041:ZN O *D gf180mcu_fd_sc_mcu7t5v0__aoi21_1
*CAP
1 *1046:A2 0
2 *1043:A1 0.000419153
3 *1041:ZN 0.000399279
4 *166:10 0.000818431
5 *1043:A1 *1029:I0 0.000615982
6 *1043:A1 *1045:A1 0.000362773
7 *1043:A1 *1046:A1 0.000182206
8 *1043:A1 *198:36 3.12455e-05
9 *166:10 *1030:I0 0.000222872
10 *166:10 *1041:B 0
11 *166:10 *1046:A1 0.000354143
12 *166:10 *1061:SETN 0.000597456
13 *166:10 *229:10 0.00084548
14 *166:10 *232:14 0.000317701
15 *166:10 *239:49 0.000183662
16 *1068:D *1043:A1 0.000601522
17 *156:16 *1043:A1 0
*RES
1 *1041:ZN *166:10 15.48 
2 *166:10 *1043:A1 13.68 
3 *166:10 *1046:A2 9 
*END

*D_NET *167 0.00289602
*CONN
*I *1043:A2 I *D gf180mcu_fd_sc_mcu7t5v0__nor2_1
*I *1042:ZN O *D gf180mcu_fd_sc_mcu7t5v0__nor2_1
*CAP
1 *1043:A2 0.000324019
2 *1042:ZN 0.000324019
3 *1043:A2 *1031:I0 0
4 *1043:A2 *1044:I0 0.000445479
5 *1043:A2 *1044:I1 0.000665337
6 *1043:A2 *1044:S 8.05869e-05
7 *1043:A2 *1067:CLK 3.94128e-05
8 *1043:A2 *1099:I 8.09827e-05
9 *1042:A2 *1043:A2 1.61174e-05
10 *1066:D *1043:A2 0.000352278
11 *156:26 *1043:A2 0.00056779
*RES
1 *1042:ZN *1043:A2 22.86 
*END

*D_NET *168 0.00141683
*CONN
*I *1044:I1 I *D gf180mcu_fd_sc_mcu7t5v0__mux2_2
*I *1043:ZN O *D gf180mcu_fd_sc_mcu7t5v0__nor2_1
*CAP
1 *1044:I1 0.000269139
2 *1043:ZN 0.000269139
3 *1044:I1 *1045:A1 0.000190576
4 *1044:I1 *1067:CLK 1.3634e-05
5 *1044:I1 *198:36 9.00161e-06
6 *1043:A2 *1044:I1 0.000665337
*RES
1 *1043:ZN *1044:I1 11.88 
*END

*D_NET *169 0.000706823
*CONN
*I *1046:B I *D gf180mcu_fd_sc_mcu7t5v0__aoi21_1
*I *1045:ZN O *D gf180mcu_fd_sc_mcu7t5v0__nor2_1
*CAP
1 *1046:B 0.000166667
2 *1045:ZN 0.000166667
3 *1046:B *1029:I0 0.00037349
*RES
1 *1045:ZN *1046:B 10.62 
*END

*D_NET *170 0.000240124
*CONN
*I *1048:I I *D gf180mcu_fd_sc_mcu7t5v0__clkinv_1
*I *1047:Z O *D gf180mcu_fd_sc_mcu7t5v0__mux2_2
*CAP
1 *1048:I 0.000103078
2 *1047:Z 0.000103078
3 *1048:I *232:14 3.39687e-05
*RES
1 *1047:Z *1048:I 18.99 
*END

*D_NET *171 0.000880817
*CONN
*I *1052:A2 I *D gf180mcu_fd_sc_mcu7t5v0__aoi21_1
*I *1054:B2 I *D gf180mcu_fd_sc_mcu7t5v0__oai22_1
*I *1049:Z O *D gf180mcu_fd_sc_mcu7t5v0__or2_1
*CAP
1 *1052:A2 0
2 *1054:B2 0.000159891
3 *1049:Z 0.000163219
4 *171:10 0.00032311
5 *1054:B2 *1054:A2 0
6 *1054:B2 *1054:B1 9.07674e-05
7 *171:10 *1054:A2 0
8 *1052:A1 *171:10 0.000143831
9 *1070:D *1054:B2 0
*RES
1 *1049:Z *171:10 6.03 
2 *171:10 *1054:B2 5.67 
3 *171:10 *1052:A2 4.5 
*END

*D_NET *172 0.000433625
*CONN
*I *1051:A2 I *D gf180mcu_fd_sc_mcu7t5v0__and2_1
*I *1050:ZN O *D gf180mcu_fd_sc_mcu7t5v0__oai32_1
*CAP
1 *1051:A2 0.000115776
2 *1050:ZN 0.000115776
3 *1051:A2 *1051:A1 0.000115707
4 *1051:A2 *239:76 0
5 *1050:B2 *1051:A2 8.49208e-05
6 *76:16 *1051:A2 1.44511e-06
*RES
1 *1050:ZN *1051:A2 9.99 
*END

*D_NET *173 0.00103844
*CONN
*I *1054:A2 I *D gf180mcu_fd_sc_mcu7t5v0__oai22_1
*I *1052:B I *D gf180mcu_fd_sc_mcu7t5v0__aoi21_1
*I *1051:Z O *D gf180mcu_fd_sc_mcu7t5v0__and2_1
*CAP
1 *1054:A2 0.000159657
2 *1052:B 6.1883e-05
3 *1051:Z 0.000124008
4 *173:8 0.000345548
5 *1052:B *1054:B1 4.23752e-05
6 *1054:A2 *1054:B1 6.2133e-05
7 *1054:A2 *239:76 1.06178e-05
8 *173:8 *239:76 3.58953e-05
9 *1052:A1 *1052:B 6.44696e-05
10 *1052:A1 *173:8 1.26644e-05
11 *1053:A2 *1054:A2 0.000119192
12 *1054:B2 *1054:A2 0
13 *171:10 *1054:A2 0
*RES
1 *1051:Z *173:8 5.49 
2 *173:8 *1052:B 5.49 
3 *173:8 *1054:A2 6.21 
*END

*D_NET *174 0.000570141
*CONN
*I *1054:B1 I *D gf180mcu_fd_sc_mcu7t5v0__oai22_1
*I *1053:ZN O *D gf180mcu_fd_sc_mcu7t5v0__nand2_1
*CAP
1 *1054:B1 0.000187433
2 *1053:ZN 0.000187433
3 *1052:B *1054:B1 4.23752e-05
4 *1054:A2 *1054:B1 6.2133e-05
5 *1054:B2 *1054:B1 9.07674e-05
*RES
1 *1053:ZN *1054:B1 10.8 
*END

*D_NET *175 0.00293393
*CONN
*I *1056:B I *D gf180mcu_fd_sc_mcu7t5v0__oai211_1
*I *1057:A2 I *D gf180mcu_fd_sc_mcu7t5v0__oai21_1
*I *1055:ZN O *D gf180mcu_fd_sc_mcu7t5v0__nand2_1
*CAP
1 *1056:B 0.000369804
2 *1057:A2 5.66397e-05
3 *1055:ZN 0.000103469
4 *175:6 0.000529913
5 *1056:B *1056:C 3.42246e-05
6 *1057:A2 *1057:A1 2.08301e-05
7 *1026:A2 *1056:B 0.000240988
8 *1026:A4 *1056:B 0.000295162
9 *1072:D *1056:B 0.000365445
10 *1072:D *1057:A2 9.85004e-05
11 *39:32 *1056:B 0.000161479
12 *39:34 *1056:B 0.000295931
13 *40:69 *1056:B 0.000301265
14 *157:6 *1056:B 6.0284e-05
*RES
1 *1055:ZN *175:6 5.31 
2 *175:6 *1057:A2 4.95 
3 *175:6 *1056:B 17.91 
*END

*D_NET *176 0.00258076
*CONN
*I *1057:B I *D gf180mcu_fd_sc_mcu7t5v0__oai21_1
*I *1056:ZN O *D gf180mcu_fd_sc_mcu7t5v0__oai211_1
*CAP
1 *1057:B 0.000195895
2 *1056:ZN 0.000195895
3 *1057:B *1003:A2 3.08083e-05
4 *1057:B *1056:C 0.000956654
5 *1007:A1 *1057:B 0.00103163
6 *1135:I *1057:B 1.61174e-05
7 *74:14 *1057:B 7.20938e-05
8 *157:6 *1057:B 8.16641e-05
*RES
1 *1056:ZN *1057:B 12.96 
*END

*D_NET *177 0.00457161
*CONN
*I *1016:A1 I *D gf180mcu_fd_sc_mcu7t5v0__nand4_1
*I *1022:A1 I *D gf180mcu_fd_sc_mcu7t5v0__nand3_1
*I *1024:A1 I *D gf180mcu_fd_sc_mcu7t5v0__aoi211_1
*I *918:ZN O *D gf180mcu_fd_sc_mcu7t5v0__clkinv_1
*CAP
1 *1016:A1 0
2 *1022:A1 0.000160781
3 *1024:A1 0
4 *918:ZN 8.14002e-05
5 *177:21 0.000412627
6 *177:8 0.000333246
7 *177:21 *178:38 0.000203398
8 *918:I *177:8 0.000390584
9 *918:I *177:21 0.000508781
10 *1017:A2 *177:21 5.22596e-06
11 *1017:A3 *1022:A1 0.000294421
12 *1020:A1 *1022:A1 0.000998309
13 *1020:A1 *177:21 3.01487e-05
14 *1021:A1 *177:8 6.76406e-05
15 *1021:A1 *177:21 2.60683e-05
16 *1023:A4 *1022:A1 0.000238588
17 *1023:A4 *177:21 0.000194087
18 *1024:B *177:21 0.000283695
19 *1024:C *177:21 8.12023e-06
20 *39:26 *1022:A1 3.46221e-05
21 *148:14 *177:21 0.000299869
*RES
1 *918:ZN *177:8 9.99 
2 *177:8 *1024:A1 9 
3 *177:8 *177:21 8.28 
4 *177:21 *1022:A1 7.92 
5 *177:21 *1016:A1 4.5 
*END

*D_NET *178 0.00689045
*CONN
*I *1014:A2 I *D gf180mcu_fd_sc_mcu7t5v0__nand4_1
*I *1015:A1 I *D gf180mcu_fd_sc_mcu7t5v0__nand2_1
*I *1016:A2 I *D gf180mcu_fd_sc_mcu7t5v0__nand4_1
*I *1003:A1 I *D gf180mcu_fd_sc_mcu7t5v0__aoi211_1
*I *919:ZN O *D gf180mcu_fd_sc_mcu7t5v0__clkinv_1
*CAP
1 *1014:A2 8.59257e-05
2 *1015:A1 0
3 *1016:A2 0
4 *1003:A1 0.000347765
5 *919:ZN 0
6 *178:38 0.000225891
7 *178:25 0.000528437
8 *178:4 0.000736236
9 *1001:A2 *1003:A1 3.02473e-05
10 *1001:A2 *178:25 0
11 *1003:C *1003:A1 1.56374e-05
12 *1004:B2 *1003:A1 3.01487e-05
13 *1007:A2 *1003:A1 0.000320055
14 *1007:A3 *1003:A1 0.000169515
15 *1014:A1 *178:38 5.97457e-06
16 *1020:A1 *1003:A1 5.97457e-06
17 *1020:A1 *178:25 0.00168875
18 *1022:A3 *178:25 0.000974129
19 *1022:A3 *178:38 0.000416072
20 *1024:B *1014:A2 2.53817e-05
21 *1024:B *178:38 1.61174e-05
22 *38:51 *1003:A1 1.0415e-05
23 *38:75 *1003:A1 0.000219821
24 *39:12 *1014:A2 0.000233791
25 *39:12 *178:38 5.75174e-05
26 *39:20 *178:25 5.59262e-05
27 *40:45 *1003:A1 0.00013372
28 *40:45 *178:25 2.5373e-05
29 *40:54 *1003:A1 0.000257913
30 *40:54 *178:25 0
31 *40:65 *1003:A1 2.20108e-05
32 *74:14 *1003:A1 1.32722e-05
33 *74:51 *178:25 3.50385e-05
34 *177:21 *178:38 0.000203398
*RES
1 *919:ZN *178:4 4.5 
2 *178:4 *1003:A1 17.19 
3 *178:4 *178:25 5.67 
4 *178:25 *1016:A2 4.5 
5 *178:25 *178:38 2.34 
6 *178:38 *1015:A1 4.5 
7 *178:38 *1014:A2 5.4 
*END

*D_NET *179 0.0111147
*CONN
*I *958:A1 I *D gf180mcu_fd_sc_mcu7t5v0__xnor2_1
*I *964:A1 I *D gf180mcu_fd_sc_mcu7t5v0__nand4_1
*I *960:A1 I *D gf180mcu_fd_sc_mcu7t5v0__and3_1
*I *961:A1 I *D gf180mcu_fd_sc_mcu7t5v0__aoi21_1
*I *957:A1 I *D gf180mcu_fd_sc_mcu7t5v0__nor2_1
*I *943:A2 I *D gf180mcu_fd_sc_mcu7t5v0__xor2_1
*I *1073:Q O *D gf180mcu_fd_sc_mcu7t5v0__dffrnq_1
*CAP
1 *958:A1 4.40536e-05
2 *964:A1 0.00015944
3 *960:A1 0
4 *961:A1 0
5 *957:A1 0.000342089
6 *943:A2 0
7 *1073:Q 0.000357069
8 *179:54 0.000240346
9 *179:45 0.00010908
10 *179:38 0.00066738
11 *179:14 0.000935239
12 *179:8 0.00154537
13 *957:A1 *943:A1 9.84908e-05
14 *957:A1 *957:A2 0.000281913
15 *957:A1 *197:83 0
16 *958:A1 *959:A1 0
17 *958:A1 *186:10 0.000424464
18 *958:A1 *187:25 0.00023968
19 *964:A1 *933:A1 3.45305e-05
20 *964:A1 *964:A2 0.000508511
21 *964:A1 *964:A4 0
22 *964:A1 *186:10 9.39061e-05
23 *964:A1 *187:25 0.000166798
24 *964:A1 *230:32 0.000496776
25 *179:8 *1073:RN 1.60094e-05
26 *179:8 *238:105 0
27 *179:14 *939:A1 0.000253844
28 *179:14 *943:A1 7.70028e-05
29 *179:14 *957:A2 0
30 *179:14 *197:83 2.32821e-05
31 *179:14 *230:49 0
32 *179:38 *939:A1 0.000263416
33 *179:38 *961:A2 1.61174e-05
34 *179:38 *964:A2 0
35 *179:38 *187:25 1.07374e-05
36 *179:38 *188:10 0
37 *179:38 *230:38 0.000942817
38 *179:38 *230:49 0
39 *179:45 *961:A2 0.000265083
40 *179:45 *187:25 0.000112242
41 *179:54 *960:A3 1.0415e-05
42 *179:54 *964:A2 1.86887e-06
43 *179:54 *187:25 1.39839e-05
44 *962:A3 *179:38 3.40778e-05
45 *965:A2 *179:38 0.000292006
46 *1073:D *957:A1 0.000381562
47 *1079:D *179:14 0.00121728
48 *109:12 *179:38 0.00043778
*RES
1 *1073:Q *179:8 11.07 
2 *179:8 *179:14 10.44 
3 *179:14 *943:A2 4.5 
4 *179:14 *957:A1 8.28 
5 *179:8 *179:38 11.7 
6 *179:38 *961:A1 4.5 
7 *179:38 *179:45 1.17 
8 *179:45 *960:A1 4.5 
9 *179:45 *179:54 4.77 
10 *179:54 *964:A1 11.7 
11 *179:54 *958:A1 10.17 
*END

*D_NET *180 0.00883579
*CONN
*I *938:A2 I *D gf180mcu_fd_sc_mcu7t5v0__xnor2_1
*I *984:A1 I *D gf180mcu_fd_sc_mcu7t5v0__nor2_1
*I *985:A1 I *D gf180mcu_fd_sc_mcu7t5v0__and2_1
*I *987:A1 I *D gf180mcu_fd_sc_mcu7t5v0__aoi21_1
*I *988:A3 I *D gf180mcu_fd_sc_mcu7t5v0__nand4_1
*I *1083:Q O *D gf180mcu_fd_sc_mcu7t5v0__dffrnq_1
*CAP
1 *938:A2 0.00017189
2 *984:A1 8.1463e-05
3 *985:A1 0.000213194
4 *987:A1 2.30096e-05
5 *988:A3 0.000272854
6 *1083:Q 1.03834e-05
7 *180:16 0.000448546
8 *180:12 0.000380516
9 *180:10 0.000138715
10 *180:8 0.000224886
11 *938:A2 *938:A1 0.000317853
12 *938:A2 *1083:RN 3.01487e-05
13 *938:A2 *199:44 0.000131756
14 *985:A1 *986:A1 6.34901e-05
15 *985:A1 *193:10 0
16 *987:A1 *987:B 9.04462e-05
17 *987:A1 *1084:RN 5.78854e-06
18 *988:A3 *982:A1 0
19 *988:A3 *987:B 0.000192205
20 *988:A3 *988:A4 3.97987e-05
21 *988:A3 *1084:RN 4.78178e-05
22 *988:A3 *181:10 0.000483368
23 *988:A3 *194:12 7.55765e-06
24 *180:8 *231:23 0.000269963
25 *180:8 *240:48 0.000310002
26 *180:10 *199:48 0.000677101
27 *180:10 *231:23 0.00186784
28 *180:10 *240:48 9.39061e-05
29 *180:10 *240:61 3.80703e-05
30 *180:12 *231:23 0.00019669
31 *180:16 *990:A1 0.000226227
32 *180:16 *199:52 3.81914e-05
33 *180:16 *231:23 0.000168945
34 *985:A2 *985:A1 6.18125e-05
35 *986:A2 *984:A1 0.000213894
36 *986:A2 *985:A1 7.29053e-05
37 *1083:D *180:10 0.000247389
38 *1083:D *180:12 0.000229402
39 *1083:D *180:16 0.000101615
40 *123:12 *180:16 0.000646148
*RES
1 *1083:Q *180:8 9.81 
2 *180:8 *180:10 4.95 
3 *180:10 *180:12 0.63 
4 *180:12 *180:16 6.75 
5 *180:16 *988:A3 7.38 
6 *180:16 *987:A1 4.77 
7 *180:12 *985:A1 10.53 
8 *180:10 *984:A1 9.63 
9 *180:8 *938:A2 11.07 
*END

*D_NET *181 0.00625688
*CONN
*I *987:B I *D gf180mcu_fd_sc_mcu7t5v0__aoi21_1
*I *988:A4 I *D gf180mcu_fd_sc_mcu7t5v0__nand4_1
*I *948:A2 I *D gf180mcu_fd_sc_mcu7t5v0__xor2_1
*I *1084:Q O *D gf180mcu_fd_sc_mcu7t5v0__dffrnq_1
*CAP
1 *987:B 6.90096e-05
2 *988:A4 6.86054e-05
3 *948:A2 0.00121854
4 *1084:Q 0
5 *181:10 0.00154653
6 *181:4 0.000328395
7 *948:A2 *940:A2 8.05869e-05
8 *948:A2 *978:A1 0
9 *948:A2 *982:A1 1.10524e-05
10 *948:A2 *194:16 3.67373e-05
11 *948:A2 *230:87 0.000393856
12 *948:A2 *230:104 1.07374e-05
13 *987:B *1084:RN 3.73774e-06
14 *987:B *194:12 0.000628087
15 *988:A4 *982:A1 1.22467e-05
16 *181:10 *194:12 0.000158001
17 *181:10 *194:16 0.000162562
18 *942:A1 *948:A2 0.000433797
19 *978:A3 *948:A2 2.9065e-05
20 *987:A1 *987:B 9.04462e-05
21 *988:A3 *987:B 0.000192205
22 *988:A3 *988:A4 3.97987e-05
23 *988:A3 *181:10 0.000483368
24 *989:A4 *948:A2 0
25 *1080:D *948:A2 0.000172267
26 *120:18 *948:A2 0
27 *120:25 *948:A2 8.7253e-05
28 *120:36 *948:A2 0
*RES
1 *1084:Q *181:4 4.5 
2 *181:4 *181:10 2.61 
3 *181:10 *948:A2 22.77 
4 *181:10 *988:A4 5.13 
5 *181:4 *987:B 6.21 
*END

*D_NET *182 0.0036955
*CONN
*I *994:A1 I *D gf180mcu_fd_sc_mcu7t5v0__and3_1
*I *993:A1 I *D gf180mcu_fd_sc_mcu7t5v0__aoi21_1
*I *944:A2 I *D gf180mcu_fd_sc_mcu7t5v0__xor2_1
*I *991:A1 I *D gf180mcu_fd_sc_mcu7t5v0__xnor2_1
*I *1085:Q O *D gf180mcu_fd_sc_mcu7t5v0__dffrnq_1
*CAP
1 *994:A1 4.10674e-05
2 *993:A1 3.735e-05
3 *944:A2 9.55349e-05
4 *991:A1 0.00011266
5 *1085:Q 0
6 *182:16 0.000496051
7 *182:10 0.000444266
8 *182:4 0.000160128
9 *944:A2 *938:A1 0
10 *944:A2 *944:A1 0
11 *944:A2 *946:A1 1.68677e-06
12 *993:A1 *993:A2 1.51153e-05
13 *993:A1 *993:B 4.53732e-05
14 *994:A1 *994:A2 0.000164228
15 *994:A1 *1085:RN 1.56942e-05
16 *182:10 *993:B 9.33726e-06
17 *182:10 *1085:RN 7.55765e-06
18 *182:16 *994:A2 8.66027e-05
19 *951:A1 *994:A1 0.000171937
20 *951:A1 *182:16 2.27485e-05
21 *951:A2 *944:A2 1.98195e-05
22 *951:A2 *991:A1 0.000195071
23 *951:A2 *182:16 0.000184334
24 *951:A4 *944:A2 0.000104612
25 *951:A4 *991:A1 0.00077391
26 *995:A2 *993:A1 1.73538e-05
27 *995:A2 *994:A1 0.000158798
28 *995:A2 *182:10 6.00445e-05
29 *25:18 *182:16 0.000254217
*RES
1 *1085:Q *182:4 4.5 
2 *182:4 *182:10 0.99 
3 *182:10 *182:16 11.79 
4 *182:16 *991:A1 6.57 
5 *182:16 *944:A2 5.31 
6 *182:10 *993:A1 4.95 
7 *182:4 *994:A1 14.4 
*END

*D_NET *183 0.00313379
*CONN
*I *993:B I *D gf180mcu_fd_sc_mcu7t5v0__aoi21_1
*I *994:A2 I *D gf180mcu_fd_sc_mcu7t5v0__and3_1
*I *946:A2 I *D gf180mcu_fd_sc_mcu7t5v0__xor2_1
*I *1086:Q O *D gf180mcu_fd_sc_mcu7t5v0__dffrnq_1
*CAP
1 *993:B 0.000172918
2 *994:A2 0.000141137
3 *946:A2 9.26618e-05
4 *1086:Q 0
5 *183:17 0.000550967
6 *183:4 0.000329574
7 *946:A2 *231:12 8.66027e-05
8 *993:B *946:A1 3.40214e-05
9 *993:B *1085:RN 9.85004e-05
10 *183:17 *995:A1 0
11 *183:17 *1085:RN 0.000630788
12 *183:17 *231:6 0
13 *951:A1 *994:A2 0.000255544
14 *993:A1 *993:B 4.53732e-05
15 *994:A1 *994:A2 0.000164228
16 *995:A2 *183:17 0
17 *25:18 *993:B 1.23607e-05
18 *25:18 *183:17 0.000423176
19 *182:10 *993:B 9.33726e-06
20 *182:16 *994:A2 8.66027e-05
*RES
1 *1086:Q *183:4 4.5 
2 *183:4 *946:A2 14.31 
3 *183:4 *183:17 2.97 
4 *183:17 *994:A2 15.39 
5 *183:17 *993:B 6.03 
*END

*D_NET *184 0.00946573
*CONN
*I *998:A1 I *D gf180mcu_fd_sc_mcu7t5v0__aoi21_1
*I *999:A1 I *D gf180mcu_fd_sc_mcu7t5v0__and3_1
*I *996:B2 I *D gf180mcu_fd_sc_mcu7t5v0__oai221_1
*I *936:A2 I *D gf180mcu_fd_sc_mcu7t5v0__xnor2_1
*I *997:A1 I *D gf180mcu_fd_sc_mcu7t5v0__aoi21_1
*I *1087:Q O *D gf180mcu_fd_sc_mcu7t5v0__dffrnq_1
*CAP
1 *998:A1 0.000437147
2 *999:A1 8.70341e-05
3 *996:B2 0
4 *936:A2 0
5 *997:A1 0.000319718
6 *1087:Q 0.00036543
7 *184:47 0.000754517
8 *184:38 0.000433184
9 *184:14 0.000619733
10 *184:10 0.000868294
11 *997:A1 *1087:CLK 0.000433797
12 *997:A1 *196:15 6.48506e-05
13 *998:A1 *185:14 0
14 *998:A1 *200:59 0
15 *998:A1 *241:59 0
16 *184:10 *200:8 3.57113e-05
17 *184:10 *200:39 3.41958e-05
18 *184:10 *200:43 3.11112e-05
19 *184:10 *240:16 0.00021137
20 *184:10 *241:59 4.80547e-05
21 *184:14 *936:A1 9.7773e-05
22 *184:14 *200:43 1.87137e-05
23 *184:14 *240:16 8.49448e-05
24 *184:38 *200:59 9.54644e-05
25 *184:47 *200:59 0.000215044
26 *954:A2 *997:A1 8.3187e-05
27 *997:A2 *997:A1 7.8687e-05
28 *997:A2 *184:38 0.00104783
29 *998:A2 *998:A1 0.000264357
30 *1086:D *998:A1 1.18477e-05
31 *1086:D *999:A1 9.08505e-05
32 *1087:D *997:A1 0.000168693
33 *1097:I *997:A1 0.000535916
34 *1098:I *184:14 0.000299714
35 *103:16 *997:A1 2.08301e-05
36 *105:22 *997:A1 2.95601e-05
37 *105:22 *184:14 8.04753e-05
38 *132:23 *184:47 3.01487e-05
39 *132:25 *184:38 3.55118e-05
40 *132:25 *184:47 0.00143203
*RES
1 *1087:Q *184:10 12.78 
2 *184:10 *184:14 7.11 
3 *184:14 *997:A1 17.19 
4 *184:14 *936:A2 4.5 
5 *184:10 *184:38 7.29 
6 *184:38 *996:B2 4.5 
7 *184:38 *184:47 8.37 
8 *184:47 *999:A1 9.63 
9 *184:47 *998:A1 12.6 
*END

*D_NET *185 0.00525981
*CONN
*I *998:B I *D gf180mcu_fd_sc_mcu7t5v0__aoi21_1
*I *931:A2 I *D gf180mcu_fd_sc_mcu7t5v0__xor2_1
*I *999:A2 I *D gf180mcu_fd_sc_mcu7t5v0__and3_1
*I *1088:Q O *D gf180mcu_fd_sc_mcu7t5v0__dffrnq_1
*CAP
1 *998:B 0
2 *931:A2 0.000666646
3 *999:A2 0.000139613
4 *1088:Q 0.000456851
5 *185:14 0.00102513
6 *185:10 0.000675717
7 *931:A2 *931:A1 2.65444e-06
8 *931:A2 *936:A1 0
9 *185:10 *1086:RN 0.000466026
10 *185:10 *1088:RN 0
11 *185:14 *1086:RN 0.00114351
12 *951:A1 *931:A2 0
13 *998:A1 *185:14 0
14 *998:A2 *185:14 0.000121287
15 *1000:A3 *931:A2 4.9993e-05
16 *1086:D *931:A2 1.0415e-05
17 *1086:D *999:A2 0.00010717
18 *1088:D *931:A2 9.34115e-05
19 *1098:I *931:A2 4.39427e-05
20 *1098:I *999:A2 2.81722e-05
21 *132:8 *931:A2 0
22 *132:19 *185:14 1.3026e-05
23 *132:23 *999:A2 0.000186096
24 *132:25 *999:A2 3.01487e-05
*RES
1 *1088:Q *185:10 12.6 
2 *185:10 *185:14 7.47 
3 *185:14 *999:A2 5.85 
4 *185:14 *931:A2 9.18 
5 *185:10 *998:B 9 
*END

*D_NET *186 0.00393573
*CONN
*I *932:A2 I *D gf180mcu_fd_sc_mcu7t5v0__xnor2_1
*I *958:A2 I *D gf180mcu_fd_sc_mcu7t5v0__xnor2_1
*I *960:A2 I *D gf180mcu_fd_sc_mcu7t5v0__and3_1
*I *961:A2 I *D gf180mcu_fd_sc_mcu7t5v0__aoi21_1
*I *964:A2 I *D gf180mcu_fd_sc_mcu7t5v0__nand4_1
*I *1074:Q O *D gf180mcu_fd_sc_mcu7t5v0__dffrnq_1
*CAP
1 *932:A2 0.000373842
2 *958:A2 0.000438677
3 *960:A2 0
4 *961:A2 0.000129531
5 *964:A2 0.000182502
6 *1074:Q 0.000127763
7 *186:23 0.000129531
8 *186:10 0.000322071
9 *186:6 0.000332168
10 *932:A2 *932:A1 9.84908e-05
11 *958:A2 *187:25 7.47548e-06
12 *961:A2 *187:29 4.31393e-06
13 *961:A2 *230:32 0
14 *964:A2 *933:A1 0.000161479
15 *964:A2 *960:A3 1.23715e-05
16 *964:A2 *187:29 0.000108767
17 *964:A2 *230:32 2.14748e-05
18 *186:6 *1074:RN 5.97457e-06
19 *186:6 *187:25 3.57113e-05
20 *186:10 *959:A1 0
21 *186:10 *187:12 3.11112e-05
22 *958:A1 *186:10 0.000424464
23 *959:A2 *932:A2 4.18699e-05
24 *959:A2 *958:A2 0
25 *962:A3 *961:A2 1.87007e-05
26 *964:A1 *964:A2 0.000508511
27 *964:A1 *186:10 9.39061e-05
28 *109:8 *961:A2 4.19499e-05
29 *179:38 *961:A2 1.61174e-05
30 *179:38 *964:A2 0
31 *179:45 *961:A2 0.000265083
32 *179:54 *964:A2 1.86887e-06
*RES
1 *1074:Q *186:6 5.31 
2 *186:6 *186:10 6.21 
3 *186:10 *964:A2 11.34 
4 *186:10 *186:23 4.5 
5 *186:23 *961:A2 6.03 
6 *186:23 *960:A2 4.5 
7 *186:6 *958:A2 4.95 
8 *958:A2 *932:A2 11.61 
*END

*D_NET *187 0.00401124
*CONN
*I *960:A3 I *D gf180mcu_fd_sc_mcu7t5v0__and3_1
*I *933:A2 I *D gf180mcu_fd_sc_mcu7t5v0__xnor2_1
*I *964:A3 I *D gf180mcu_fd_sc_mcu7t5v0__nand4_1
*I *961:B I *D gf180mcu_fd_sc_mcu7t5v0__aoi21_1
*I *1075:Q O *D gf180mcu_fd_sc_mcu7t5v0__dffrnq_1
*CAP
1 *960:A3 2.62873e-05
2 *933:A2 3.1142e-05
3 *964:A3 0
4 *961:B 0
5 *1075:Q 0.000511123
6 *187:29 0.000221564
7 *187:25 0.000508029
8 *187:12 0.000802443
9 *933:A2 *933:A1 0.000337978
10 *933:A2 *230:24 0.000436469
11 *187:12 *1074:RN 4.76605e-05
12 *187:25 *959:A1 0
13 *187:25 *964:A4 1.18076e-06
14 *187:25 *1074:RN 0
15 *187:29 *933:A1 0.000290129
16 *187:29 *230:24 3.55118e-05
17 *958:A1 *187:25 0.00023968
18 *958:A2 *187:25 7.47548e-06
19 *961:A2 *187:29 4.31393e-06
20 *962:A3 *187:29 0
21 *964:A1 *187:25 0.000166798
22 *964:A2 *960:A3 1.23715e-05
23 *964:A2 *187:29 0.000108767
24 *112:10 *933:A2 8.12023e-06
25 *179:38 *187:25 1.07374e-05
26 *179:45 *187:25 0.000112242
27 *179:54 *960:A3 1.0415e-05
28 *179:54 *187:25 1.39839e-05
29 *186:6 *187:25 3.57113e-05
30 *186:10 *187:12 3.11112e-05
*RES
1 *1075:Q *187:12 17.28 
2 *187:12 *961:B 4.5 
3 *187:12 *187:25 11.52 
4 *187:25 *187:29 1.8 
5 *187:29 *964:A3 4.5 
6 *187:29 *933:A2 5.67 
7 *187:25 *960:A3 4.77 
*END

*D_NET *188 0.00569637
*CONN
*I *939:A2 I *D gf180mcu_fd_sc_mcu7t5v0__xor2_1
*I *964:A4 I *D gf180mcu_fd_sc_mcu7t5v0__nand4_1
*I *963:A1 I *D gf180mcu_fd_sc_mcu7t5v0__and2_1
*I *965:A1 I *D gf180mcu_fd_sc_mcu7t5v0__nor2_1
*I *1076:Q O *D gf180mcu_fd_sc_mcu7t5v0__dffrnq_1
*CAP
1 *939:A2 0.000112021
2 *964:A4 0.000127179
3 *963:A1 0
4 *965:A1 5.83654e-05
5 *1076:Q 0.000522886
6 *188:30 0.000361388
7 *188:23 0.000364729
8 *188:10 0.000823793
9 *939:A2 *933:A1 0
10 *939:A2 *1075:CLK 0.000132094
11 *939:A2 *230:32 2.31089e-05
12 *964:A4 *932:A1 0
13 *964:A4 *933:A1 0.000209401
14 *964:A4 *230:32 0.000424932
15 *965:A1 *939:A1 0.000106141
16 *965:A1 *238:99 0.000592487
17 *188:10 *197:6 3.72786e-05
18 *188:10 *238:73 1.60094e-05
19 *188:10 *238:81 0
20 *188:10 *238:99 0.000620161
21 *188:23 *1075:CLK 8.61061e-05
22 *188:23 *230:32 0.000133728
23 *188:30 *1075:CLK 0.000119952
24 *188:30 *230:32 0.000121576
25 *963:A2 *188:23 0.000257557
26 *964:A1 *964:A4 0
27 *965:A2 *965:A1 0
28 *1075:D *188:23 0.000365445
29 *109:8 *188:23 8.68281e-06
30 *109:12 *965:A1 0
31 *109:12 *188:10 0
32 *112:10 *939:A2 7.01651e-05
33 *179:38 *188:10 0
34 *187:25 *964:A4 1.18076e-06
*RES
1 *1076:Q *188:10 13.32 
2 *188:10 *965:A1 10.53 
3 *188:10 *188:23 7.47 
4 *188:23 *963:A1 4.5 
5 *188:23 *188:30 1.35 
6 *188:30 *964:A4 15.21 
7 *188:30 *939:A2 5.85 
*END

*D_NET *189 0.00938116
*CONN
*I *967:A1 I *D gf180mcu_fd_sc_mcu7t5v0__xor2_1
*I *969:A1 I *D gf180mcu_fd_sc_mcu7t5v0__nand2_1
*I *971:A1 I *D gf180mcu_fd_sc_mcu7t5v0__aoi21_1
*I *941:A2 I *D gf180mcu_fd_sc_mcu7t5v0__xor2_1
*I *1077:Q O *D gf180mcu_fd_sc_mcu7t5v0__dffrnq_1
*CAP
1 *967:A1 0.000167108
2 *969:A1 0
3 *971:A1 0.000277289
4 *941:A2 0.000551832
5 *1077:Q 0.000464092
6 *189:35 0.000277289
7 *189:18 0.00135009
8 *189:8 0.00142946
9 *941:A2 *935:A2 0
10 *941:A2 *191:26 9.84908e-05
11 *941:A2 *191:34 0.000572414
12 *941:A2 *230:87 0.000159948
13 *967:A1 *1077:CLK 0
14 *967:A1 *199:14 1.0415e-05
15 *971:A1 *969:A2 0.000195949
16 *971:A1 *190:19 0.000100224
17 *971:A1 *230:79 0.000150744
18 *189:8 *1080:RN 0.000238536
19 *189:8 *240:16 0.000445497
20 *189:18 *1075:CLK 0.00104783
21 *189:18 *1080:RN 4.24724e-05
22 *949:A1 *941:A2 7.09033e-06
23 *949:A3 *941:A2 5.30545e-05
24 *949:A4 *941:A2 6.10035e-05
25 *950:A3 *189:8 0.000101615
26 *950:A4 *941:A2 3.45237e-05
27 *950:A4 *189:18 0.000420834
28 *967:A2 *967:A1 0.000291749
29 *968:A2 *967:A1 6.62654e-05
30 *968:A2 *189:18 0.000226458
31 *972:A3 *971:A1 1.39839e-05
32 *1097:I *189:8 1.47172e-05
33 *105:14 *189:8 2.20809e-05
34 *112:10 *189:18 5.88844e-05
35 *112:14 *189:8 6.26041e-05
36 *112:14 *189:18 0.000302284
37 *116:12 *971:A1 6.4328e-05
*RES
1 *1077:Q *189:8 13.77 
2 *189:8 *189:18 18.45 
3 *189:18 *941:A2 13.32 
4 *189:18 *189:35 4.5 
5 *189:35 *971:A1 6.93 
6 *189:35 *969:A1 4.5 
7 *189:8 *967:A1 10.44 
*END

*D_NET *190 0.0039344
*CONN
*I *969:A2 I *D gf180mcu_fd_sc_mcu7t5v0__nand2_1
*I *935:A2 I *D gf180mcu_fd_sc_mcu7t5v0__xor2_1
*I *971:B I *D gf180mcu_fd_sc_mcu7t5v0__aoi21_1
*I *1078:Q O *D gf180mcu_fd_sc_mcu7t5v0__dffrnq_1
*CAP
1 *969:A2 0.000194338
2 *935:A2 0.000350962
3 *971:B 0
4 *1078:Q 0.000145007
5 *190:19 0.000686975
6 *190:12 0.000286682
7 *935:A2 *191:34 0
8 *935:A2 *230:87 0.000135095
9 *969:A2 *975:A1 2.65444e-06
10 *190:12 *933:A1 1.48237e-05
11 *190:12 *973:A1 0.00043521
12 *190:12 *230:79 0.000346693
13 *190:19 *230:79 0.000150744
14 *941:A2 *935:A2 0
15 *949:A1 *935:A2 0.000520387
16 *949:A1 *969:A2 2.08301e-05
17 *949:A1 *190:19 1.0415e-05
18 *949:A2 *190:12 0
19 *949:A2 *190:19 1.80781e-05
20 *949:A3 *935:A2 1.99615e-05
21 *949:A3 *969:A2 1.4382e-06
22 *950:A4 *935:A2 4.34597e-05
23 *971:A1 *969:A2 0.000195949
24 *971:A1 *190:19 0.000100224
25 *974:A2 *190:12 0.000116341
26 *977:A2 *969:A2 3.09818e-06
27 *977:A2 *190:19 0
28 *1078:D *190:12 0.000135033
*RES
1 *1078:Q *190:12 15.84 
2 *190:12 *971:B 4.5 
3 *190:12 *190:19 1.17 
4 *190:19 *935:A2 16.11 
5 *190:19 *969:A2 6.12 
*END

*D_NET *191 0.00625854
*CONN
*I *945:A2 I *D gf180mcu_fd_sc_mcu7t5v0__xor2_1
*I *975:A1 I *D gf180mcu_fd_sc_mcu7t5v0__nand2_1
*I *977:A1 I *D gf180mcu_fd_sc_mcu7t5v0__aoi21_1
*I *973:A1 I *D gf180mcu_fd_sc_mcu7t5v0__xnor2_1
*I *1079:Q O *D gf180mcu_fd_sc_mcu7t5v0__dffrnq_1
*CAP
1 *945:A2 0
2 *975:A1 0.000157121
3 *977:A1 3.2625e-05
4 *973:A1 0.00104442
5 *1079:Q 0.000828419
6 *191:34 0.000615293
7 *191:26 0.000641548
8 *973:A1 *933:A1 0.000247395
9 *973:A1 *1078:RN 8.35196e-05
10 *975:A1 *977:B 0.00037349
11 *977:A1 *977:B 1.34934e-05
12 *191:26 *230:87 0.00035975
13 *935:A2 *191:34 0
14 *941:A2 *191:26 9.84908e-05
15 *941:A2 *191:34 0.000572414
16 *949:A1 *191:26 2.31089e-05
17 *949:A2 *973:A1 6.65211e-05
18 *949:A3 *191:26 0.000143853
19 *949:A4 *191:26 5.97457e-06
20 *969:A2 *975:A1 2.65444e-06
21 *971:A2 *973:A1 0.000163714
22 *977:A2 *973:A1 1.34934e-05
23 *977:A2 *977:A1 2.54278e-05
24 *977:A2 *191:26 3.31158e-05
25 *977:A2 *191:34 6.45405e-05
26 *978:A3 *191:34 0
27 *1078:D *973:A1 8.96792e-05
28 *115:8 *975:A1 7.51619e-05
29 *115:8 *191:34 5.07195e-06
30 *115:19 *975:A1 4.30312e-05
31 *116:12 *191:34 0
32 *190:12 *973:A1 0.00043521
*RES
1 *1079:Q *973:A1 24.57 
2 *973:A1 *191:26 7.11 
3 *191:26 *191:34 11.88 
4 *191:34 *977:A1 4.95 
5 *191:34 *975:A1 6.48 
6 *191:26 *945:A2 4.5 
*END

*D_NET *192 0.00339181
*CONN
*I *934:A2 I *D gf180mcu_fd_sc_mcu7t5v0__xor2_1
*I *975:A2 I *D gf180mcu_fd_sc_mcu7t5v0__nand2_1
*I *977:B I *D gf180mcu_fd_sc_mcu7t5v0__aoi21_1
*I *1080:Q O *D gf180mcu_fd_sc_mcu7t5v0__dffrnq_1
*CAP
1 *934:A2 0
2 *975:A2 0
3 *977:B 0.000122737
4 *1080:Q 0.000157946
5 *192:16 0.00032999
6 *192:8 0.000365199
7 *192:8 *934:A1 3.01487e-05
8 *192:16 *934:A1 0.00130939
9 *947:A1 *192:8 0
10 *975:A1 *977:B 0.00037349
11 *977:A1 *977:B 1.34934e-05
12 *978:A3 *977:B 3.02812e-05
13 *112:14 *192:16 0.000382875
14 *112:18 *192:16 0.000229402
15 *115:19 *977:B 0
16 *120:18 *192:8 3.81737e-05
17 *120:18 *192:16 8.68281e-06
*RES
1 *1080:Q *192:8 5.58 
2 *192:8 *192:16 12.42 
3 *192:16 *977:B 5.85 
4 *192:16 *975:A2 4.5 
5 *192:8 *934:A2 4.5 
*END

*D_NET *193 0.00809834
*CONN
*I *937:A2 I *D gf180mcu_fd_sc_mcu7t5v0__xor2_1
*I *982:A1 I *D gf180mcu_fd_sc_mcu7t5v0__aoi21_1
*I *979:A1 I *D gf180mcu_fd_sc_mcu7t5v0__xnor2_1
*I *981:A1 I *D gf180mcu_fd_sc_mcu7t5v0__and3_1
*I *988:A1 I *D gf180mcu_fd_sc_mcu7t5v0__nand4_1
*I *1081:Q O *D gf180mcu_fd_sc_mcu7t5v0__dffrnq_1
*CAP
1 *937:A2 0.000567321
2 *982:A1 0.000484523
3 *979:A1 0
4 *981:A1 0
5 *988:A1 9.7019e-05
6 *1081:Q 0.000135388
7 *193:34 0.000690447
8 *193:12 0.000256935
9 *193:10 0.000758218
10 *193:6 0.00109509
11 *982:A1 *1084:RN 3.12377e-05
12 *982:A1 *230:104 0
13 *988:A1 *981:A2 0.000496776
14 *988:A1 *990:A1 2.14748e-05
15 *988:A1 *194:12 0.000236727
16 *193:6 *1081:RN 0
17 *193:10 *1081:RN 9.93861e-05
18 *193:10 *194:12 5.08836e-05
19 *193:12 *990:A1 5.92036e-05
20 *193:12 *194:12 0.000165555
21 *193:34 *1084:RN 1.4382e-06
22 *193:34 *199:52 0.000954025
23 *193:34 *230:104 0
24 *193:34 *240:61 0.000346434
25 *193:34 *240:65 0.000247389
26 *948:A2 *982:A1 1.10524e-05
27 *979:A2 *982:A1 0
28 *979:A2 *193:34 7.191e-07
29 *985:A1 *193:10 0
30 *985:A2 *193:10 3.73774e-06
31 *985:A2 *193:12 7.47548e-06
32 *986:A3 *193:10 4.78286e-05
33 *988:A3 *982:A1 0
34 *988:A4 *982:A1 1.22467e-05
35 *990:A2 *982:A1 0.000703423
36 *25:18 *937:A2 0.000182196
37 *25:18 *193:34 0
38 *120:36 *982:A1 0.000326147
39 *123:8 *193:12 8.04533e-06
*RES
1 *1081:Q *193:6 5.31 
2 *193:6 *193:10 3.06 
3 *193:10 *193:12 1.35 
4 *193:12 *988:A1 6.3 
5 *193:12 *981:A1 4.5 
6 *193:10 *193:34 11.88 
7 *193:34 *979:A1 4.5 
8 *193:34 *982:A1 9.18 
9 *193:6 *937:A2 18.81 
*END

*D_NET *194 0.00747726
*CONN
*I *988:A2 I *D gf180mcu_fd_sc_mcu7t5v0__nand4_1
*I *981:A2 I *D gf180mcu_fd_sc_mcu7t5v0__and3_1
*I *982:B I *D gf180mcu_fd_sc_mcu7t5v0__aoi21_1
*I *940:A2 I *D gf180mcu_fd_sc_mcu7t5v0__xor2_1
*I *1082:Q O *D gf180mcu_fd_sc_mcu7t5v0__dffrnq_1
*CAP
1 *988:A2 0
2 *981:A2 0.000254571
3 *982:B 0
4 *940:A2 0.000480736
5 *1082:Q 0.000368808
6 *194:18 0.000762507
7 *194:16 0.000615326
8 *194:12 0.000447793
9 *940:A2 *230:104 0.000995562
10 *194:12 *1081:RN 0.000223407
11 *194:12 *1084:RN 2.1573e-06
12 *948:A2 *940:A2 8.05869e-05
13 *948:A2 *194:16 3.67373e-05
14 *979:A2 *940:A2 2.20789e-06
15 *981:A3 *940:A2 8.06824e-06
16 *981:A3 *981:A2 0.000575333
17 *981:A3 *194:18 3.53362e-05
18 *983:A3 *940:A2 0.000168769
19 *987:B *194:12 0.000628087
20 *988:A1 *981:A2 0.000496776
21 *988:A1 *194:12 0.000236727
22 *988:A3 *194:12 7.55765e-06
23 *989:A4 *981:A2 0.000365454
24 *989:A4 *194:12 1.61174e-05
25 *989:A4 *194:16 8.00409e-05
26 *120:25 *940:A2 0
27 *129:8 *981:A2 5.15895e-05
28 *181:10 *194:12 0.000158001
29 *181:10 *194:16 0.000162562
30 *193:10 *194:12 5.08836e-05
31 *193:12 *194:12 0.000165555
*RES
1 *1082:Q *194:12 9.18 
2 *194:12 *194:16 5.49 
3 *194:16 *194:18 1.71 
4 *194:18 *940:A2 13.32 
5 *194:18 *982:B 9 
6 *194:16 *981:A2 12.42 
7 *194:12 *988:A2 4.5 
*END

*D_NET *195 0.00165605
*CONN
*I *925:I I *D gf180mcu_fd_sc_mcu7t5v0__clkinv_1
*I *1005:B I *D gf180mcu_fd_sc_mcu7t5v0__aoi211_1
*I *1089:Q O *D gf180mcu_fd_sc_mcu7t5v0__dffrnq_1
*CAP
1 *925:I 0.00044292
2 *1005:B 0
3 *1089:Q 0.000261218
4 *195:8 0.000704139
5 *925:I *1012:A2 4.6613e-06
6 *1006:A1 *925:I 9.4913e-06
7 *1012:A1 *925:I 0.00015997
8 *1012:B *925:I 4.6613e-06
9 *1058:D *925:I 0
10 *1058:D *195:8 0
11 *1137:I *925:I 6.19076e-05
12 *38:16 *925:I 7.08457e-06
13 *38:25 *925:I 0
14 *39:40 *925:I 0
15 *39:40 *195:8 0
*RES
1 *1089:Q *195:8 10.53 
2 *195:8 *1005:B 9 
3 *195:8 *925:I 12.24 
*END

*D_NET *196 0.00659809
*CONN
*I *1092:I I *D gf180mcu_fd_sc_mcu7t5v0__clkbuf_16
*I *1091:I I *D gf180mcu_fd_sc_mcu7t5v0__clkbuf_16
*I *1094:I I *D gf180mcu_fd_sc_mcu7t5v0__clkbuf_16
*I *1093:I I *D gf180mcu_fd_sc_mcu7t5v0__clkbuf_16
*I *1090:Z O *D gf180mcu_fd_sc_mcu7t5v0__clkbuf_16
*CAP
1 *1092:I 0.000148873
2 *1091:I 0.000180865
3 *1094:I 0
4 *1093:I 2.9867e-05
5 *1090:Z 0.000253587
6 *196:73 0.000169856
7 *196:68 0.000105512
8 *196:52 0.00091262
9 *196:47 0.000944155
10 *196:31 0.000104683
11 *196:19 7.20473e-05
12 *196:15 0.000976215
13 *196:6 0.000955067
14 *1093:I *936:A1 0.000110119
15 *196:15 *936:A1 3.38355e-05
16 *196:15 *1087:CLK 0.000356899
17 *196:15 *200:43 0.000101415
18 *196:19 *936:A1 0.000105777
19 *196:31 *200:43 0.000150153
20 *196:47 *1074:CLK 0
21 *196:52 *1074:CLK 0
22 *950:A1 *196:6 0
23 *950:A1 *196:15 0
24 *950:A2 *196:15 7.86369e-05
25 *953:A1 *196:15 4.78178e-05
26 *996:A2 *1093:I 0.000121905
27 *996:A2 *196:19 0.000105777
28 *997:A1 *196:15 6.48506e-05
29 *997:A2 *196:15 0
30 *1061:D *1091:I 0
31 *1061:D *1092:I 3.7357e-05
32 *1061:D *196:52 0
33 *1061:D *196:68 0
34 *1074:D *196:52 0.000391974
35 *103:16 *196:15 3.24315e-05
36 *105:14 *196:15 5.79059e-06
*RES
1 *1090:Z *196:6 5.23607 
2 *196:6 *196:15 11.0539 
3 *196:15 *196:19 5.19107 
4 *196:19 *1093:I 5.24893 
5 *196:15 *196:31 0.99 
6 *196:31 *1094:I 9 
7 *1090:Z *196:47 5.31 
8 *196:47 *196:52 6.17464 
9 *196:52 *1091:I 5.16536 
10 *1091:I *196:68 5.17179 
11 *196:68 *196:73 0.138214 
12 *196:73 *1092:I 5.67 
*END

*D_NET *197 0.0136198
*CONN
*I *1078:CLK I *D gf180mcu_fd_sc_mcu7t5v0__dffrnq_1
*I *1079:CLK I *D gf180mcu_fd_sc_mcu7t5v0__dffrnq_1
*I *1073:CLK I *D gf180mcu_fd_sc_mcu7t5v0__dffrnq_1
*I *1076:CLK I *D gf180mcu_fd_sc_mcu7t5v0__dffrnq_1
*I *1062:CLK I *D gf180mcu_fd_sc_mcu7t5v0__dffsnq_1
*I *1063:CLK I *D gf180mcu_fd_sc_mcu7t5v0__dffsnq_1
*I *1064:CLK I *D gf180mcu_fd_sc_mcu7t5v0__dffsnq_1
*I *1065:CLK I *D gf180mcu_fd_sc_mcu7t5v0__dffsnq_1
*I *1091:Z O *D gf180mcu_fd_sc_mcu7t5v0__clkbuf_16
*CAP
1 *1078:CLK 0.000331913
2 *1079:CLK 3.44897e-05
3 *1073:CLK 0.00159073
4 *1076:CLK 0
5 *1062:CLK 0
6 *1063:CLK 0
7 *1064:CLK 0.00049135
8 *1065:CLK 0.000258668
9 *1091:Z 0.000170814
10 *197:83 0.000752266
11 *197:58 0.00198796
12 *197:22 0.000905712
13 *197:20 0.0011218
14 *197:8 0.00156749
15 *197:6 0.0015553
16 *1064:CLK *1036:I0 0.000782958
17 *1064:CLK *1036:S 0.000293342
18 *1065:CLK *1033:I0 0
19 *1073:CLK *939:A1 0
20 *1073:CLK *238:99 0.000229915
21 *1073:CLK *238:105 5.90118e-05
22 *1078:CLK *933:A1 0.000293026
23 *1078:CLK *943:A1 0
24 *197:6 *238:73 0
25 *197:6 *238:81 9.66175e-06
26 *197:8 *238:73 0
27 *197:20 *1065:SETN 2.89427e-06
28 *197:20 *1076:RN 0.000195939
29 *197:20 *238:20 3.12451e-05
30 *197:20 *238:24 0.000166798
31 *197:20 *238:28 5.78854e-06
32 *197:58 *238:81 0.000164778
33 *197:83 *943:A1 0
34 *957:A1 *197:83 0
35 *1034:I1 *1065:CLK 3.12451e-05
36 *1034:I1 *197:20 0
37 *1034:I1 *197:22 0.000164679
38 *1036:I1 *1064:CLK 0.000231442
39 *1064:D *1064:CLK 3.02306e-05
40 *1065:D *1065:CLK 7.55765e-06
41 *1073:D *197:83 0
42 *1076:D *1073:CLK 5.88261e-05
43 *1078:D *1078:CLK 7.55765e-06
44 *1106:I *1078:CLK 0
45 *1106:I *197:83 0
46 *1125:I *1078:CLK 2.38983e-05
47 *179:14 *197:83 2.32821e-05
48 *188:10 *197:6 3.72786e-05
*RES
1 *1091:Z *197:6 5.67 
2 *197:6 *197:8 3.87 
3 *197:8 *197:20 15.66 
4 *197:20 *197:22 1.17 
5 *197:22 *1065:CLK 6.03 
6 *197:22 *1064:CLK 18.36 
7 *197:20 *1063:CLK 4.5 
8 *197:8 *1062:CLK 4.5 
9 *197:6 *197:58 15.57 
10 *197:58 *1076:CLK 4.5 
11 *197:58 *1073:CLK 22.14 
12 *1073:CLK *197:83 7.11 
13 *197:83 *1079:CLK 4.77 
14 *197:83 *1078:CLK 7.11 
*END

*D_NET *198 0.014392
*CONN
*I *1070:CLK I *D gf180mcu_fd_sc_mcu7t5v0__dffrnq_1
*I *1071:CLK I *D gf180mcu_fd_sc_mcu7t5v0__dffrnq_1
*I *1072:CLK I *D gf180mcu_fd_sc_mcu7t5v0__dffrnq_1
*I *1068:CLK I *D gf180mcu_fd_sc_mcu7t5v0__dffsnq_1
*I *1067:CLK I *D gf180mcu_fd_sc_mcu7t5v0__dffsnq_1
*I *1066:CLK I *D gf180mcu_fd_sc_mcu7t5v0__dffsnq_1
*I *1061:CLK I *D gf180mcu_fd_sc_mcu7t5v0__dffsnq_1
*I *1069:CLK I *D gf180mcu_fd_sc_mcu7t5v0__dffrnq_1
*I *1092:Z O *D gf180mcu_fd_sc_mcu7t5v0__clkbuf_16
*CAP
1 *1070:CLK 0.000453302
2 *1071:CLK 0
3 *1072:CLK 0.000618383
4 *1068:CLK 0
5 *1067:CLK 0.00129068
6 *1066:CLK 4.05432e-05
7 *1061:CLK 0.000167237
8 *1069:CLK 0.000162547
9 *1092:Z 0
10 *198:77 0.00150568
11 *198:36 0.000947383
12 *198:30 0.00132067
13 *198:17 0.00156348
14 *198:15 0.00171
15 *198:4 0.000510055
16 *1067:CLK *1029:I0 0
17 *1067:CLK *1045:A1 0
18 *1069:CLK *1041:B 0.000164306
19 *1072:CLK *926:I 9.07783e-05
20 *1072:CLK *225:16 0.000269356
21 *1072:CLK *250:30 0.000288458
22 *198:15 *1030:I0 0
23 *198:15 *1041:B 0.000110619
24 *198:15 *225:16 1.4382e-06
25 *198:17 *1025:A1 5.22248e-06
26 *198:17 *250:30 0.000248965
27 *198:36 *1029:I0 0
28 *198:36 *1029:I1 0
29 *198:36 *1045:A1 0
30 *198:77 *1037:I1 0
31 *198:77 *1042:A1 0.000741636
32 *198:77 *1044:I0 0
33 *198:77 *1045:A1 3.01575e-05
34 *1025:A2 *198:17 2.87839e-05
35 *1030:I1 *198:30 2.99208e-05
36 *1043:A1 *198:36 3.12455e-05
37 *1043:A2 *1067:CLK 3.94128e-05
38 *1044:I1 *1067:CLK 1.3634e-05
39 *1044:I1 *198:36 9.00161e-06
40 *1061:D *198:30 0.00028587
41 *1066:D *1067:CLK 4.6613e-06
42 *1066:D *198:36 8.12053e-05
43 *1067:D *1067:CLK 2.32821e-05
44 *1068:D *198:30 7.55765e-06
45 *1068:D *198:36 6.08466e-05
46 *1070:D *1070:CLK 4.6613e-06
47 *1071:D *1070:CLK 5.27466e-05
48 *82:12 *1072:CLK 7.59116e-05
49 *82:12 *198:15 4.15093e-05
50 *82:12 *198:17 0.000138299
51 *156:26 *1066:CLK 5.1072e-06
52 *156:26 *1067:CLK 0.000834
53 *156:26 *198:36 0.000383427
*RES
1 *1092:Z *198:4 4.5 
2 *198:4 *1069:CLK 6.03 
3 *198:4 *198:15 6.93 
4 *198:15 *198:17 6.39 
5 *198:17 *1061:CLK 9.81 
6 *198:17 *198:30 9.63 
7 *198:30 *198:36 5.49 
8 *198:36 *1066:CLK 4.77 
9 *198:36 *1067:CLK 7.11 
10 *198:30 *1068:CLK 4.5 
11 *198:15 *1072:CLK 14.58 
12 *1067:CLK *198:77 23.13 
13 *198:77 *1071:CLK 4.5 
14 *198:77 *1070:CLK 7.38 
*END

*D_NET *199 0.0221621
*CONN
*I *1075:CLK I *D gf180mcu_fd_sc_mcu7t5v0__dffrnq_1
*I *1085:CLK I *D gf180mcu_fd_sc_mcu7t5v0__dffrnq_1
*I *1083:CLK I *D gf180mcu_fd_sc_mcu7t5v0__dffrnq_1
*I *1081:CLK I *D gf180mcu_fd_sc_mcu7t5v0__dffrnq_1
*I *1082:CLK I *D gf180mcu_fd_sc_mcu7t5v0__dffrnq_1
*I *1084:CLK I *D gf180mcu_fd_sc_mcu7t5v0__dffrnq_1
*I *1095:I I *D gf180mcu_fd_sc_mcu7t5v0__clkbuf_2
*I *1077:CLK I *D gf180mcu_fd_sc_mcu7t5v0__dffrnq_1
*I *1080:CLK I *D gf180mcu_fd_sc_mcu7t5v0__dffrnq_1
*I *1093:Z O *D gf180mcu_fd_sc_mcu7t5v0__clkbuf_16
*CAP
1 *1075:CLK 0.000840396
2 *1085:CLK 0.000196395
3 *1083:CLK 0
4 *1081:CLK 0.000484413
5 *1082:CLK 3.44897e-05
6 *1084:CLK 0.000213021
7 *1095:I 0
8 *1077:CLK 0.00103137
9 *1080:CLK 0.000729861
10 *1093:Z 0.00109184
11 *199:61 0.000701682
12 *199:52 0.000840132
13 *199:48 0.00048977
14 *199:44 0.00112379
15 *199:14 0.00118663
16 *199:8 0.000475678
17 *1075:CLK *939:A1 0.00183367
18 *1080:CLK *934:A1 0.000101241
19 *1080:CLK *1080:RN 0.000678367
20 *1081:CLK *980:A1 0
21 *1085:CLK *938:A1 4.57989e-05
22 *1085:CLK *240:61 3.54696e-05
23 *199:14 *1080:RN 0.000158079
24 *199:44 *938:A1 5.30888e-06
25 *199:44 *1083:RN 2.31089e-05
26 *199:44 *240:61 1.23607e-05
27 *199:48 *240:61 0.000800929
28 *199:52 *983:A1 0.000259494
29 *199:52 *240:61 0.000117249
30 *938:A2 *199:44 0.000131756
31 *939:A2 *1075:CLK 0.000132094
32 *947:A1 *1077:CLK 0
33 *947:A1 *1080:CLK 0.000604092
34 *947:A1 *199:14 0.000385445
35 *951:A3 *1075:CLK 1.92567e-05
36 *952:A3 *1080:CLK 0.000373463
37 *952:A4 *199:44 0
38 *963:A2 *1075:CLK 0.000628097
39 *967:A1 *1077:CLK 0
40 *967:A1 *199:14 1.0415e-05
41 *968:A2 *1077:CLK 6.84043e-05
42 *983:A2 *1084:CLK 0
43 *983:A2 *199:52 0.00134251
44 *983:A3 *1084:CLK 0
45 *986:A2 *199:48 0.000101615
46 *986:A2 *199:52 0.000370036
47 *1076:D *1075:CLK 0
48 *1081:D *1081:CLK 0
49 *1082:D *1081:CLK 2.68548e-05
50 *1082:D *199:61 6.26074e-05
51 *1083:D *199:48 0.000346434
52 *1083:D *199:52 0.000171937
53 *1084:D *1084:CLK 7.55765e-06
54 *1142:I *199:44 8.35152e-05
55 *25:18 *199:52 0
56 *112:10 *1075:CLK 0
57 *123:12 *199:52 0.000862226
58 *180:10 *199:48 0.000677101
59 *180:16 *199:52 3.81914e-05
60 *188:23 *1075:CLK 8.61061e-05
61 *188:30 *1075:CLK 0.000119952
62 *189:18 *1075:CLK 0.00104783
63 *193:34 *199:52 0.000954025
*RES
1 *1093:Z *199:8 5.94 
2 *199:8 *199:14 6.84 
3 *199:14 *1080:CLK 17.19 
4 *199:14 *1077:CLK 10.35 
5 *199:8 *1095:I 4.5 
6 *1093:Z *199:44 10.71 
7 *199:44 *199:48 9.09 
8 *199:48 *199:52 12.33 
9 *199:52 *1084:CLK 5.85 
10 *199:52 *199:61 1.35 
11 *199:61 *1082:CLK 4.77 
12 *199:61 *1081:CLK 7.92 
13 *199:48 *1083:CLK 9 
14 *199:44 *1085:CLK 5.85 
15 *1077:CLK *1075:CLK 19.17 
*END

*D_NET *200 0.0139598
*CONN
*I *1059:CLK I *D gf180mcu_fd_sc_mcu7t5v0__dffrnq_1
*I *1060:CLK I *D gf180mcu_fd_sc_mcu7t5v0__dffrnq_1
*I *1088:CLK I *D gf180mcu_fd_sc_mcu7t5v0__dffrnq_1
*I *1086:CLK I *D gf180mcu_fd_sc_mcu7t5v0__dffrnq_1
*I *1096:I I *D gf180mcu_fd_sc_mcu7t5v0__clkbuf_2
*I *1087:CLK I *D gf180mcu_fd_sc_mcu7t5v0__dffrnq_1
*I *1058:CLK I *D gf180mcu_fd_sc_mcu7t5v0__dffrnq_1
*I *1089:CLK I *D gf180mcu_fd_sc_mcu7t5v0__dffrnq_1
*I *1074:CLK I *D gf180mcu_fd_sc_mcu7t5v0__dffrnq_1
*I *1094:Z O *D gf180mcu_fd_sc_mcu7t5v0__clkbuf_16
*CAP
1 *1059:CLK 0
2 *1060:CLK 0.000436626
3 *1088:CLK 0.000355519
4 *1086:CLK 0
5 *1096:I 0
6 *1087:CLK 9.80803e-05
7 *1058:CLK 0
8 *1089:CLK 0
9 *1074:CLK 0.00104016
10 *1094:Z 0.000659058
11 *200:86 0.00107013
12 *200:59 0.00122595
13 *200:43 0.000621494
14 *200:39 0.00153223
15 *200:16 0.00147219
16 *200:8 0.0010414
17 *200:6 0.000773311
18 *1087:CLK *936:A1 0.000247296
19 *1088:CLK *1000:A1 2.05328e-05
20 *1088:CLK *1086:RN 4.20137e-05
21 *200:6 *241:59 0
22 *200:8 *241:59 0
23 *200:43 *936:A1 8.93953e-05
24 *954:A1 *200:16 1.0415e-05
25 *997:A1 *1087:CLK 0.000433797
26 *997:A2 *200:16 2.55518e-05
27 *998:A1 *200:59 0
28 *998:A2 *1088:CLK 2.89427e-06
29 *998:A2 *200:59 4.50076e-05
30 *1000:A2 *1088:CLK 7.46268e-05
31 *1000:A3 *1088:CLK 0.0001078
32 *1000:A3 *200:59 8.33579e-05
33 *1059:D *1060:CLK 0.000395022
34 *1059:D *200:86 5.06031e-06
35 *1061:D *1074:CLK 0
36 *1074:D *1074:CLK 0
37 *1089:D *1074:CLK 0
38 *1089:D *200:16 0
39 *1098:I *200:43 3.48193e-05
40 *83:12 *200:16 0.000958234
41 *103:16 *200:16 1.0415e-05
42 *105:22 *1087:CLK 2.65444e-06
43 *132:23 *200:59 6.03144e-06
44 *184:10 *200:8 3.57113e-05
45 *184:10 *200:39 3.41958e-05
46 *184:10 *200:43 3.11112e-05
47 *184:14 *200:43 1.87137e-05
48 *184:38 *200:59 9.54644e-05
49 *184:47 *200:59 0.000215044
50 *196:15 *1087:CLK 0.000356899
51 *196:15 *200:43 0.000101415
52 *196:31 *200:43 0.000150153
53 *196:47 *1074:CLK 0
54 *196:52 *1074:CLK 0
*RES
1 *1094:Z *200:6 4.77 
2 *200:6 *200:8 3.51 
3 *200:8 *200:16 13.14 
4 *200:16 *1074:CLK 11.34 
5 *200:16 *1089:CLK 4.5 
6 *200:8 *1058:CLK 4.5 
7 *200:6 *200:39 5.67 
8 *200:39 *200:43 8.19 
9 *200:43 *1087:CLK 6.75 
10 *200:43 *1096:I 4.5 
11 *200:39 *200:59 11.25 
12 *200:59 *1086:CLK 4.5 
13 *200:59 *1088:CLK 16.38 
14 *1094:Z *200:86 8.64 
15 *200:86 *1060:CLK 16.92 
16 *200:86 *1059:CLK 4.5 
*END

*D_NET *201 0.00164186
*CONN
*I *1010:A1 I *D gf180mcu_fd_sc_mcu7t5v0__oai21_1
*I *1009:A1 I *D gf180mcu_fd_sc_mcu7t5v0__and2_1
*I *1103:Z O *D gf180mcu_fd_sc_mcu7t5v0__dlyb_1
*CAP
1 *1010:A1 6.70619e-06
2 *1009:A1 0.000275407
3 *1103:Z 0.000177095
4 *201:8 0.000459208
5 *1009:A1 *1069:RN 8.26533e-06
6 *1010:A1 *1072:RN 9.84908e-05
7 *201:8 *922:I 0
8 *1010:A2 *1009:A1 0.000352047
9 *1011:A2 *1009:A1 2.26729e-05
10 *142:10 *201:8 0
11 *143:15 *1009:A1 5.53273e-05
12 *144:19 *1009:A1 8.81508e-05
13 *144:19 *1010:A1 9.84908e-05
*RES
1 *1103:Z *201:8 10.17 
2 *201:8 *1009:A1 11.16 
3 *201:8 *1010:A1 9.27 
*END

*D_NET *202 0.00651455
*CONN
*I *932:A1 I *D gf180mcu_fd_sc_mcu7t5v0__xnor2_1
*I *1104:Z O *D gf180mcu_fd_sc_mcu7t5v0__dlyb_1
*CAP
1 *932:A1 0.00132679
2 *1104:Z 0.00132679
3 *932:A1 *933:A1 0
4 *932:A1 *935:A1 4.01448e-05
5 *932:A1 *959:A1 0
6 *932:A1 *972:A1 0.000695446
7 *932:A1 *230:32 0
8 *932:A1 *230:87 0.00105281
9 *932:A2 *932:A1 9.84908e-05
10 *950:A4 *932:A1 0
11 *951:A3 *932:A1 0.000575624
12 *952:A1 *932:A1 2.30981e-05
13 *964:A4 *932:A1 0
14 *1078:D *932:A1 0.00021552
15 *116:18 *932:A1 0.00115983
*RES
1 *1104:Z *932:A1 32.58 
*END

*D_NET *203 0.00550287
*CONN
*I *933:A1 I *D gf180mcu_fd_sc_mcu7t5v0__xnor2_1
*I *1105:Z O *D gf180mcu_fd_sc_mcu7t5v0__dlyb_1
*CAP
1 *933:A1 0.00145784
2 *1105:Z 0.00145784
3 *933:A1 *943:A1 6.4656e-05
4 *933:A1 *957:A2 3.62057e-05
5 *933:A1 *230:32 5.78854e-06
6 *933:A1 *230:49 1.18562e-05
7 *932:A1 *933:A1 0
8 *933:A2 *933:A1 0.000337978
9 *939:A2 *933:A1 0
10 *964:A1 *933:A1 3.45305e-05
11 *964:A2 *933:A1 0.000161479
12 *964:A4 *933:A1 0.000209401
13 *971:A2 *933:A1 0.000526384
14 *973:A1 *933:A1 0.000247395
15 *1078:D *933:A1 0
16 *1078:CLK *933:A1 0.000293026
17 *1125:I *933:A1 0.000155877
18 *111:8 *933:A1 9.7773e-05
19 *112:10 *933:A1 9.98816e-05
20 *116:18 *933:A1 0
21 *187:29 *933:A1 0.000290129
22 *190:12 *933:A1 1.48237e-05
*RES
1 *1105:Z *933:A1 32.49 
*END

*D_NET *204 0.0062746
*CONN
*I *939:A1 I *D gf180mcu_fd_sc_mcu7t5v0__xor2_1
*I *1106:Z O *D gf180mcu_fd_sc_mcu7t5v0__dlyb_1
*CAP
1 *939:A1 0.00161208
2 *1106:Z 0.00161208
3 *939:A1 *238:99 0.000314959
4 *939:A1 *238:105 4.04291e-05
5 *965:A1 *939:A1 0.000106141
6 *965:A2 *939:A1 0.000122966
7 *966:A2 *939:A1 8.93058e-05
8 *966:A3 *939:A1 8.12856e-06
9 *1073:CLK *939:A1 0
10 *1075:CLK *939:A1 0.00183367
11 *1079:D *939:A1 1.75747e-05
12 *179:14 *939:A1 0.000253844
13 *179:38 *939:A1 0.000263416
*RES
1 *1106:Z *939:A1 32.94 
*END

*D_NET *205 0.000459857
*CONN
*I *941:A1 I *D gf180mcu_fd_sc_mcu7t5v0__xor2_1
*I *1107:Z O *D gf180mcu_fd_sc_mcu7t5v0__dlyb_1
*CAP
1 *941:A1 0.000227598
2 *1107:Z 0.000227598
3 *941:A1 *934:A1 0
4 *941:A1 *945:A1 0
5 *941:A1 *948:A1 0
6 *941:A1 *230:87 0
7 *942:A2 *941:A1 4.6613e-06
*RES
1 *1107:Z *941:A1 19.62 
*END

*D_NET *206 0.000389563
*CONN
*I *935:A1 I *D gf180mcu_fd_sc_mcu7t5v0__xor2_1
*I *1108:Z O *D gf180mcu_fd_sc_mcu7t5v0__dlyb_1
*CAP
1 *935:A1 0.000174709
2 *1108:Z 0.000174709
3 *935:A1 *945:A1 0
4 *935:A1 *230:87 0
5 *932:A1 *935:A1 4.01448e-05
*RES
1 *1108:Z *935:A1 19.44 
*END

*D_NET *207 0.000399145
*CONN
*I *945:A1 I *D gf180mcu_fd_sc_mcu7t5v0__xor2_1
*I *1109:Z O *D gf180mcu_fd_sc_mcu7t5v0__dlyb_1
*CAP
1 *945:A1 0.000199573
2 *1109:Z 0.000199573
3 *945:A1 *230:87 0
4 *935:A1 *945:A1 0
5 *941:A1 *945:A1 0
*RES
1 *1109:Z *945:A1 19.44 
*END

*D_NET *208 0.00382247
*CONN
*I *934:A1 I *D gf180mcu_fd_sc_mcu7t5v0__xor2_1
*I *1110:Z O *D gf180mcu_fd_sc_mcu7t5v0__dlyb_1
*CAP
1 *934:A1 0.000897578
2 *1110:Z 0.000897578
3 *934:A1 *948:A1 0.000455766
4 *934:A1 *1080:RN 9.57991e-05
5 *941:A1 *934:A1 0
6 *947:A1 *934:A1 7.191e-07
7 *978:A3 *934:A1 0
8 *1080:CLK *934:A1 0.000101241
9 *112:14 *934:A1 3.42509e-05
10 *192:8 *934:A1 3.01487e-05
11 *192:16 *934:A1 0.00130939
*RES
1 *1110:Z *934:A1 25.74 
*END

*D_NET *209 0.000661202
*CONN
*I *937:A1 I *D gf180mcu_fd_sc_mcu7t5v0__xor2_1
*I *1111:Z O *D gf180mcu_fd_sc_mcu7t5v0__dlyb_1
*CAP
1 *937:A1 0.000330601
2 *1111:Z 0.000330601
3 *937:A1 *938:A1 0
*RES
1 *1111:Z *937:A1 11.34 
*END

*D_NET *210 0.000539621
*CONN
*I *940:A1 I *D gf180mcu_fd_sc_mcu7t5v0__xor2_1
*I *1112:Z O *D gf180mcu_fd_sc_mcu7t5v0__dlyb_1
*CAP
1 *940:A1 0.000220695
2 *1112:Z 0.000220695
3 *940:A1 *230:87 1.19491e-05
4 *940:A1 *230:104 7.01651e-05
5 *942:A2 *940:A1 1.61174e-05
*RES
1 *1112:Z *940:A1 10.8 
*END

*D_NET *211 0.00116858
*CONN
*I *921:I I *D gf180mcu_fd_sc_mcu7t5v0__clkinv_1
*I *1113:Z O *D gf180mcu_fd_sc_mcu7t5v0__dlyb_1
*CAP
1 *921:I 0.000255895
2 *1113:Z 0.000255895
3 *921:I *1014:A4 0.00015997
4 *921:I *1140:I 0.00037349
5 *921:I *213:10 7.17427e-05
6 *39:12 *921:I 5.15895e-05
7 *40:14 *921:I 0
*RES
1 *1113:Z *921:I 11.88 
*END

*D_NET *212 0.00141806
*CONN
*I *1008:A1 I *D gf180mcu_fd_sc_mcu7t5v0__xor2_1
*I *1114:Z O *D gf180mcu_fd_sc_mcu7t5v0__dlyb_1
*CAP
1 *1008:A1 0.000123505
2 *1114:Z 0.000123505
3 *1008:A1 *1072:RN 2.20694e-05
4 *1008:A1 *241:38 0.000924538
5 *1010:B *1008:A1 0.00022444
*RES
1 *1114:Z *1008:A1 11.43 
*END

*D_NET *213 0.00376927
*CONN
*I *1016:A4 I *D gf180mcu_fd_sc_mcu7t5v0__nand4_1
*I *1015:A2 I *D gf180mcu_fd_sc_mcu7t5v0__nand2_1
*I *1115:Z O *D gf180mcu_fd_sc_mcu7t5v0__dlyb_1
*CAP
1 *1016:A4 6.78212e-05
2 *1015:A2 2.24317e-05
3 *1115:Z 0.000856956
4 *213:10 0.000947209
5 *213:10 *1014:A4 0.000375694
6 *213:10 *1140:I 7.82936e-05
7 tx_ready_o *213:10 0
8 *921:I *213:10 7.17427e-05
9 *1021:A1 *1015:A2 0.000164219
10 *1021:A1 *213:10 9.39061e-05
11 *1113:I *213:10 0
12 *1116:I *213:10 0
13 *39:12 *1016:A4 0.00035873
14 *39:20 *1016:A4 1.07374e-05
15 *40:14 *213:10 8.69576e-05
16 *40:45 *213:10 0
17 *74:51 *1016:A4 0.000532287
18 *75:15 *1015:A2 6.71551e-05
19 *75:15 *213:10 3.51278e-05
*RES
1 *1115:Z *213:10 15.66 
2 *213:10 *1015:A2 9.45 
3 *213:10 *1016:A4 10.62 
*END

*D_NET *214 0.00140433
*CONN
*I *1014:A4 I *D gf180mcu_fd_sc_mcu7t5v0__nand4_1
*I *1116:Z O *D gf180mcu_fd_sc_mcu7t5v0__dlyb_1
*CAP
1 *1014:A4 0.000139666
2 *1116:Z 0.000139666
3 *1014:A4 *1140:I 2.16941e-05
4 *921:I *1014:A4 0.00015997
5 *1014:A3 *1014:A4 0.000294431
6 *39:12 *1014:A4 2.14748e-05
7 *74:51 *1014:A4 0.000158788
8 *75:15 *1014:A4 9.29483e-05
9 *213:10 *1014:A4 0.000375694
*RES
1 *1116:Z *1014:A4 20.34 
*END

*D_NET *215 0.00174983
*CONN
*I *1102:I I *D gf180mcu_fd_sc_mcu7t5v0__dlyb_1
*I *1117:Z O *D gf180mcu_fd_sc_mcu7t5v0__dlyb_1
*CAP
1 *1102:I 0.000853221
2 *1117:Z 0.000853221
3 *1102:I *1100:I 4.33839e-05
4 *1117:I *1102:I 0
5 *58:10 *1102:I 0
*RES
1 *1117:Z *1102:I 14.49 
*END

*D_NET *216 0.00601536
*CONN
*I *1029:I0 I *D gf180mcu_fd_sc_mcu7t5v0__mux2_2
*I *1118:Z O *D gf180mcu_fd_sc_mcu7t5v0__dlyb_1
*CAP
1 *1029:I0 0.00162671
2 *1118:Z 0.00162671
3 *1029:I0 *1030:I0 0
4 *1029:I0 *1032:I0 0
5 *1029:I0 *1037:I0 3.24315e-05
6 *1029:I0 *1045:A1 0.00133224
7 *1029:I0 *235:10 0.000210066
8 *1029:I0 *251:8 0
9 *1030:S *1029:I0 0
10 *1037:S *1029:I0 0
11 *1043:A1 *1029:I0 0.000615982
12 *1046:B *1029:I0 0.00037349
13 *1067:D *1029:I0 9.07783e-05
14 *1067:CLK *1029:I0 0
15 *1068:D *1029:I0 0.000106944
16 *156:26 *1029:I0 0
17 *159:8 *1029:I0 0
18 *198:36 *1029:I0 0
*RES
1 *1118:Z *1029:I0 31.86 
*END

*D_NET *217 0.00307101
*CONN
*I *1031:I0 I *D gf180mcu_fd_sc_mcu7t5v0__mux2_2
*I *1119:Z O *D gf180mcu_fd_sc_mcu7t5v0__dlyb_1
*CAP
1 *1031:I0 0.000657916
2 *1119:Z 0.000657916
3 *1031:I0 *1029:S 2.93836e-05
4 *1031:I0 *1031:S 0.000497889
5 *1031:I0 *1035:I0 0.00022444
6 *1031:I0 *1035:S 0.000973315
7 *1031:I0 *1044:S 0
8 *1031:I0 *1062:SETN 3.01487e-05
9 *1043:A2 *1031:I0 0
*RES
1 *1119:Z *1031:I0 15.39 
*END

*D_NET *218 0.00179971
*CONN
*I *1033:I0 I *D gf180mcu_fd_sc_mcu7t5v0__mux2_2
*I *1120:Z O *D gf180mcu_fd_sc_mcu7t5v0__dlyb_1
*CAP
1 *1033:I0 0.000750775
2 *1120:Z 0.000750775
3 *1033:I0 *1033:S 3.43442e-05
4 *1033:I0 *1038:S 0
5 *1033:I0 *1064:SETN 0.000216051
6 *1065:D *1033:I0 4.77608e-05
7 *1065:CLK *1033:I0 0
*RES
1 *1120:Z *1033:I0 14.4 
*END

*D_NET *219 0.000689264
*CONN
*I *1035:I0 I *D gf180mcu_fd_sc_mcu7t5v0__mux2_2
*I *1121:Z O *D gf180mcu_fd_sc_mcu7t5v0__dlyb_1
*CAP
1 *1035:I0 0.000232412
2 *1121:Z 0.000232412
3 *1031:I0 *1035:I0 0.00022444
*RES
1 *1121:Z *1035:I0 11.16 
*END

*D_NET *220 0.000814879
*CONN
*I *1037:I0 I *D gf180mcu_fd_sc_mcu7t5v0__mux2_2
*I *1122:Z O *D gf180mcu_fd_sc_mcu7t5v0__dlyb_1
*CAP
1 *1037:I0 0.000160353
2 *1122:Z 0.000160353
3 *1037:I0 *1037:I1 0.000455766
4 *1029:I0 *1037:I0 3.24315e-05
5 *1037:S *1037:I0 5.97457e-06
*RES
1 *1122:Z *1037:I0 19.62 
*END

*D_NET *221 0.000936997
*CONN
*I *1039:I0 I *D gf180mcu_fd_sc_mcu7t5v0__mux2_2
*I *1123:Z O *D gf180mcu_fd_sc_mcu7t5v0__dlyb_1
*CAP
1 *1039:I0 0.000434009
2 *1123:Z 0.000434009
3 *1039:I0 *256:8 2.06277e-05
4 *1039:S *1039:I0 4.83522e-05
5 *1123:I *1039:I0 0
*RES
1 *1123:Z *1039:I0 11.97 
*END

*D_NET *222 0.00290553
*CONN
*I *1042:A1 I *D gf180mcu_fd_sc_mcu7t5v0__nor2_1
*I *1124:Z O *D gf180mcu_fd_sc_mcu7t5v0__dlyb_1
*CAP
1 *1042:A1 0.000521337
2 *1124:Z 0.000521337
3 *1042:A1 *1037:I1 0.000455592
4 *1042:A1 *1044:I0 0
5 *1038:I1 *1042:A1 0
6 *1122:I *1042:A1 0.00050482
7 *1123:I *1042:A1 5.77408e-05
8 *1126:I *1042:A1 0.000103065
9 *198:77 *1042:A1 0.000741636
*RES
1 *1124:Z *1042:A1 25.2 
*END

*D_NET *223 0.00198683
*CONN
*I *943:A1 I *D gf180mcu_fd_sc_mcu7t5v0__xor2_1
*I *1125:Z O *D gf180mcu_fd_sc_mcu7t5v0__dlyb_1
*CAP
1 *943:A1 0.000365949
2 *1125:Z 0.000365949
3 *943:A1 *957:A2 0.000976992
4 *933:A1 *943:A1 6.4656e-05
5 *949:A2 *943:A1 0
6 *957:A1 *943:A1 9.84908e-05
7 *1078:CLK *943:A1 0
8 *1125:I *943:A1 3.77882e-05
9 *179:14 *943:A1 7.70028e-05
10 *197:83 *943:A1 0
*RES
1 *1125:Z *943:A1 21.96 
*END

*D_NET *224 0.00267252
*CONN
*I *1045:A1 I *D gf180mcu_fd_sc_mcu7t5v0__nor2_1
*I *1126:Z O *D gf180mcu_fd_sc_mcu7t5v0__dlyb_1
*CAP
1 *1045:A1 0.000293425
2 *1126:Z 0.000293425
3 *1045:A1 *1044:I0 0.000169917
4 *1029:I0 *1045:A1 0.00133224
5 *1043:A1 *1045:A1 0.000362773
6 *1044:I1 *1045:A1 0.000190576
7 *1067:CLK *1045:A1 0
8 *198:36 *1045:A1 0
9 *198:77 *1045:A1 3.01575e-05
*RES
1 *1126:Z *1045:A1 22.68 
*END

*D_NET *225 0.00754626
*CONN
*I *926:I I *D gf180mcu_fd_sc_mcu7t5v0__clkinv_1
*I *1041:A1 I *D gf180mcu_fd_sc_mcu7t5v0__aoi21_1
*I *1025:A1 I *D gf180mcu_fd_sc_mcu7t5v0__nand2_1
*I *1127:Z O *D gf180mcu_fd_sc_mcu7t5v0__dlyb_1
*CAP
1 *926:I 5.49579e-05
2 *1041:A1 0
3 *1025:A1 0.000126676
4 *1127:Z 0.000923031
5 *225:16 0.000597091
6 *225:10 0.0014484
7 *225:10 *1002:A2 4.71078e-05
8 *225:10 *1003:A2 0.000126032
9 *225:10 *1057:A1 4.82191e-05
10 *225:10 *247:8 9.09415e-05
11 *1025:A2 *1025:A1 0.000229402
12 *1055:A2 *225:10 0.000518371
13 *1072:D *225:10 7.67022e-05
14 *1072:CLK *926:I 9.07783e-05
15 *1072:CLK *225:16 0.000269356
16 *82:12 *926:I 0.000337978
17 *82:12 *1025:A1 0.000216087
18 *82:12 *225:16 0.00233847
19 *198:15 *225:16 1.4382e-06
20 *198:17 *1025:A1 5.22248e-06
*RES
1 *1127:Z *225:10 21.51 
2 *225:10 *225:16 10.98 
3 *225:16 *1025:A1 10.35 
4 *225:16 *1041:A1 9 
5 *225:10 *926:I 5.49 
*END

*D_NET *226 0.002407
*CONN
*I *1017:A1 I *D gf180mcu_fd_sc_mcu7t5v0__nand3_1
*I *1138:I I *D gf180mcu_fd_sc_mcu7t5v0__dlyb_1
*I *955:A2 I *D gf180mcu_fd_sc_mcu7t5v0__nor2_1
*I *929:ZN O *D gf180mcu_fd_sc_mcu7t5v0__clkinv_1
*CAP
1 *1017:A1 6.23312e-05
2 *1138:I 0.000241625
3 *955:A2 0
4 *929:ZN 0.000181105
5 *226:14 0.000829378
6 *226:8 0.00083119
7 *1138:I *1140:I 9.98816e-05
8 *226:14 *240:118 1.75283e-05
9 *226:14 *241:38 0
10 *955:A1 *1138:I 1.19491e-05
11 *1020:A4 *226:14 0
12 *1023:A4 *1017:A1 6.60586e-05
13 *1023:A4 *226:8 4.78178e-05
14 *39:20 *226:14 0
15 *40:45 *1138:I 7.71821e-06
16 *145:14 *226:14 0
17 *146:18 *1017:A1 0
18 *146:18 *226:8 0
19 *146:27 *1017:A1 0
20 *146:50 *1017:A1 1.0415e-05
21 *146:50 *226:8 0
*RES
1 *929:ZN *226:8 5.76 
2 *226:8 *226:14 12.33 
3 *226:14 *955:A2 4.5 
4 *226:14 *1138:I 6.48 
5 *226:8 *1017:A1 5.13 
*END

*D_NET *227 0.000432999
*CONN
*I *1139:I I *D gf180mcu_fd_sc_mcu7t5v0__dlyb_1
*I *1004:ZN O *D gf180mcu_fd_sc_mcu7t5v0__aoi22_1
*CAP
1 *1139:I 0.000163404
2 *1004:ZN 0.000163404
3 *1139:I *241:38 6.93035e-05
4 *40:45 *1139:I 3.68874e-05
*RES
1 *1004:ZN *1139:I 10.26 
*END

*D_NET *228 0.00168357
*CONN
*I *1140:I I *D gf180mcu_fd_sc_mcu7t5v0__dlyb_1
*I *955:ZN O *D gf180mcu_fd_sc_mcu7t5v0__nor2_1
*CAP
1 *1140:I 0.000388735
2 *955:ZN 0.000388735
3 *921:I *1140:I 0.00037349
4 *955:A1 *1140:I 0.000327505
5 *1014:A4 *1140:I 2.16941e-05
6 *1138:I *1140:I 9.98816e-05
7 *74:51 *1140:I 5.23429e-06
8 *213:10 *1140:I 7.82936e-05
*RES
1 *955:ZN *1140:I 13.14 
*END

*D_NET *229 0.0139402
*CONN
*I *1040:S I *D gf180mcu_fd_sc_mcu7t5v0__mux2_2
*I *1032:S I *D gf180mcu_fd_sc_mcu7t5v0__mux2_2
*I *1034:S I *D gf180mcu_fd_sc_mcu7t5v0__mux2_2
*I *1038:S I *D gf180mcu_fd_sc_mcu7t5v0__mux2_2
*I *1036:S I *D gf180mcu_fd_sc_mcu7t5v0__mux2_2
*I *1044:S I *D gf180mcu_fd_sc_mcu7t5v0__mux2_2
*I *1134:Z O *D gf180mcu_fd_sc_mcu7t5v0__clkbuf_3
*CAP
1 *1040:S 0
2 *1032:S 3.01264e-05
3 *1034:S 0
4 *1038:S 0.00044177
5 *1036:S 0.000556443
6 *1044:S 0.000330404
7 *1134:Z 0.000697388
8 *229:33 0.00131686
9 *229:31 0.00073435
10 *229:27 0.000874081
11 *229:14 0.00129275
12 *229:10 0.00123148
13 *1032:S *1029:S 2.30981e-05
14 *1036:S *1033:S 0.000430467
15 *1036:S *1036:I0 0.000603649
16 *1036:S *253:10 0.000152103
17 *1038:S *1038:I0 0.000324664
18 *1038:S *1064:SETN 4.65286e-05
19 *1038:S *253:10 0.00012813
20 *1044:S *1031:S 0
21 *229:10 *1041:B 1.79733e-05
22 *229:10 *239:49 0.000316048
23 *229:27 *1032:I0 6.95539e-05
24 *229:27 *1062:SETN 1.8029e-05
25 *229:27 *251:8 3.53257e-05
26 *229:31 *1034:I0 0.000965934
27 *229:31 *1062:SETN 4.84588e-05
28 *229:31 *1076:RN 9.39061e-05
29 *229:31 *238:24 3.31858e-06
30 *229:33 *1064:SETN 2.72633e-05
31 *229:33 *1065:SETN 0
32 *229:33 *1076:RN 0.000400957
33 *229:33 *238:20 0.000495207
34 *229:33 *253:10 7.47548e-06
35 *1031:I0 *1044:S 0
36 *1032:I1 *1032:S 1.56779e-05
37 *1033:I0 *1038:S 0
38 *1036:I1 *1036:S 0
39 *1039:S *229:10 3.27461e-05
40 *1040:I1 *229:10 0.000145143
41 *1040:I1 *229:14 4.52764e-05
42 *1043:A2 *1044:S 8.05869e-05
43 *1062:D *229:31 0
44 *1064:CLK *1036:S 0.000293342
45 *1066:D *229:14 0.000138848
46 *1121:I *1038:S 1.19491e-05
47 *156:14 *229:10 1.54403e-05
48 *156:14 *229:14 6.17613e-06
49 *156:16 *229:14 5.26858e-05
50 *156:26 *1044:S 0.000322166
51 *156:26 *229:14 4.58283e-05
52 *156:26 *229:27 0.000175108
53 *166:10 *229:10 0.00084548
*RES
1 *1134:Z *229:10 15.48 
2 *229:10 *229:14 8.55 
3 *229:14 *1044:S 7.29 
4 *229:14 *229:27 8.1 
5 *229:27 *229:31 8.73 
6 *229:31 *229:33 2.97 
7 *229:33 *1036:S 19.62 
8 *229:33 *1038:S 8.46 
9 *229:31 *1034:S 4.5 
10 *229:27 *1032:S 9.27 
11 *229:10 *1040:S 9 
*END

*D_NET *230 0.0244903
*CONN
*I *959:A1 I *D gf180mcu_fd_sc_mcu7t5v0__nor2_1
*I *962:A1 I *D gf180mcu_fd_sc_mcu7t5v0__nor3_1
*I *972:A1 I *D gf180mcu_fd_sc_mcu7t5v0__nor3_1
*I *980:A1 I *D gf180mcu_fd_sc_mcu7t5v0__nor2_1
*I *983:A1 I *D gf180mcu_fd_sc_mcu7t5v0__nor3_1
*I *978:A1 I *D gf180mcu_fd_sc_mcu7t5v0__nor3_1
*I *974:A1 I *D gf180mcu_fd_sc_mcu7t5v0__nor2_1
*I *957:A2 I *D gf180mcu_fd_sc_mcu7t5v0__nor2_1
*I *966:A1 I *D gf180mcu_fd_sc_mcu7t5v0__nor3_1
*I *968:A1 I *D gf180mcu_fd_sc_mcu7t5v0__nor2_1
*I *1097:Z O *D gf180mcu_fd_sc_mcu7t5v0__dlyb_1
*CAP
1 *959:A1 0.000363394
2 *962:A1 0
3 *972:A1 0.000122874
4 *980:A1 0.000217565
5 *983:A1 0.00014604
6 *978:A1 0.000235974
7 *974:A1 0
8 *957:A2 0.000998032
9 *966:A1 0
10 *968:A1 8.9371e-05
11 *1097:Z 0.000718981
12 *230:104 0.00109782
13 *230:87 0.00207097
14 *230:79 0.00145149
15 *230:70 0.000227837
16 *230:49 0.00152157
17 *230:38 0.000735301
18 *230:32 0.000538532
19 *230:24 0.00131978
20 *230:79 *1078:RN 0.000691085
21 *932:A1 *959:A1 0
22 *932:A1 *972:A1 0.000695446
23 *932:A1 *230:32 0
24 *932:A1 *230:87 0.00105281
25 *933:A1 *957:A2 3.62057e-05
26 *933:A1 *230:32 5.78854e-06
27 *933:A1 *230:49 1.18562e-05
28 *933:A2 *230:24 0.000436469
29 *935:A1 *230:87 0
30 *935:A2 *230:87 0.000135095
31 *939:A2 *230:32 2.31089e-05
32 *940:A1 *230:87 1.19491e-05
33 *940:A1 *230:104 7.01651e-05
34 *940:A2 *230:104 0.000995562
35 *941:A1 *230:87 0
36 *941:A2 *230:87 0.000159948
37 *942:A1 *230:87 0.000169515
38 *942:A1 *230:104 0.000108777
39 *942:A2 *230:87 0.000186687
40 *943:A1 *957:A2 0.000976992
41 *945:A1 *230:87 0
42 *948:A2 *978:A1 0
43 *948:A2 *230:87 0.000393856
44 *948:A2 *230:104 1.07374e-05
45 *949:A2 *957:A2 5.16855e-05
46 *949:A2 *230:79 0
47 *949:A4 *230:87 0
48 *950:A4 *972:A1 5.4366e-05
49 *950:A4 *230:87 2.36152e-06
50 *952:A1 *230:24 0
51 *952:A3 *978:A1 6.06622e-05
52 *957:A1 *957:A2 0.000281913
53 *958:A1 *959:A1 0
54 *961:A2 *230:32 0
55 *964:A1 *230:32 0.000496776
56 *964:A2 *230:32 2.14748e-05
57 *964:A4 *230:32 0.000424932
58 *966:A2 *230:49 0.000175108
59 *971:A1 *230:79 0.000150744
60 *971:A2 *230:38 0
61 *971:A2 *230:49 0.000487578
62 *971:A2 *230:79 5.25008e-05
63 *974:A2 *230:79 0.000107811
64 *978:A3 *230:87 0
65 *979:A2 *230:104 0.00040141
66 *980:A2 *980:A1 0.000283886
67 *980:A2 *230:104 1.0415e-05
68 *982:A1 *230:104 0
69 *983:A3 *230:104 0.000321558
70 *1079:D *957:A2 4.44719e-05
71 *1081:CLK *980:A1 0
72 *1082:D *980:A1 0
73 *1082:D *230:104 0
74 *25:18 *983:A1 0
75 *109:8 *230:32 0.00037349
76 *111:8 *230:38 0
77 *112:10 *968:A1 0.000142047
78 *112:10 *230:24 0.000167194
79 *120:36 *230:104 0
80 *179:14 *957:A2 0
81 *179:14 *230:49 0
82 *179:38 *230:38 0.000942817
83 *179:38 *230:49 0
84 *186:10 *959:A1 0
85 *187:25 *959:A1 0
86 *187:29 *230:24 3.55118e-05
87 *188:23 *230:32 0.000133728
88 *188:30 *230:32 0.000121576
89 *190:12 *230:79 0.000346693
90 *190:19 *230:79 0.000150744
91 *191:26 *230:87 0.00035975
92 *193:34 *230:104 0
93 *199:52 *983:A1 0.000259494
*RES
1 *1097:Z *968:A1 9.9 
2 *1097:Z *230:24 13.86 
3 *230:24 *230:32 8.73 
4 *230:32 *230:38 11.43 
5 *230:38 *966:A1 4.5 
6 *230:38 *230:49 10.08 
7 *230:49 *957:A2 17.28 
8 *230:49 *230:70 4.5 
9 *230:70 *974:A1 4.5 
10 *230:70 *230:79 7.65 
11 *230:79 *230:87 15.39 
12 *230:87 *978:A1 14.67 
13 *230:87 *230:104 8.01 
14 *230:104 *983:A1 15.03 
15 *230:104 *980:A1 6.39 
16 *230:79 *972:A1 10.89 
17 *230:32 *962:A1 4.5 
18 *230:24 *959:A1 11.79 
*END

*D_NET *231 0.0126788
*CONN
*I *1000:A1 I *D gf180mcu_fd_sc_mcu7t5v0__nor3_1
*I *995:A1 I *D gf180mcu_fd_sc_mcu7t5v0__nor3_1
*I *986:A1 I *D gf180mcu_fd_sc_mcu7t5v0__nor3_1
*I *990:A1 I *D gf180mcu_fd_sc_mcu7t5v0__nor3_1
*I *992:A1 I *D gf180mcu_fd_sc_mcu7t5v0__nor2_1
*I *1098:Z O *D gf180mcu_fd_sc_mcu7t5v0__dlyb_1
*CAP
1 *1000:A1 0.000470897
2 *995:A1 0.000188656
3 *986:A1 5.85982e-05
4 *990:A1 0.000661693
5 *992:A1 0
6 *1098:Z 0
7 *231:23 0.00137383
8 *231:12 0.00104009
9 *231:6 0.000659207
10 *231:4 0.000554906
11 *1000:A1 *236:24 0.000107748
12 *231:6 *936:A1 1.19375e-06
13 *231:6 *236:24 0.000131345
14 *231:12 *1086:RN 0.000109323
15 *231:12 *236:12 7.41762e-05
16 *231:12 *236:24 0.00060325
17 *231:12 *240:48 2.98938e-05
18 *231:23 *236:12 6.68386e-05
19 *231:23 *240:48 7.98363e-05
20 *946:A2 *231:12 8.66027e-05
21 *951:A1 *1000:A1 0.00043521
22 *979:A2 *990:A1 5.62762e-05
23 *981:A3 *990:A1 0.000462822
24 *984:A2 *990:A1 5.30888e-06
25 *985:A1 *986:A1 6.34901e-05
26 *985:A2 *986:A1 9.04462e-05
27 *986:A2 *986:A1 3.23563e-06
28 *988:A1 *990:A1 2.14748e-05
29 *990:A3 *990:A1 0.0010863
30 *992:A2 *231:23 4.96595e-05
31 *995:A2 *995:A1 0.000204502
32 *995:A2 *1000:A1 0.000266954
33 *995:A2 *231:6 0.000365114
34 *995:A2 *231:12 0.000101615
35 *1085:D *231:23 0.00015547
36 *1088:CLK *1000:A1 2.05328e-05
37 *123:8 *986:A1 0.000145218
38 *123:8 *990:A1 5.82028e-05
39 *180:8 *231:23 0.000269963
40 *180:10 *231:23 0.00186784
41 *180:12 *231:23 0.00019669
42 *180:16 *990:A1 0.000226227
43 *180:16 *231:23 0.000168945
44 *183:17 *995:A1 0
45 *183:17 *231:6 0
46 *193:12 *990:A1 5.92036e-05
*RES
1 *1098:Z *231:4 4.5 
2 *231:4 *231:6 1.17 
3 *231:6 *231:12 13.41 
4 *231:12 *992:A1 4.5 
5 *231:12 *231:23 12.06 
6 *231:23 *990:A1 24.03 
7 *231:23 *986:A1 9.63 
8 *231:6 *995:A1 6.12 
9 *231:4 *1000:A1 17.46 
*END

*D_NET *232 0.00437742
*CONN
*I *1049:A2 I *D gf180mcu_fd_sc_mcu7t5v0__or2_1
*I *1047:I1 I *D gf180mcu_fd_sc_mcu7t5v0__mux2_2
*I *1028:A2 I *D gf180mcu_fd_sc_mcu7t5v0__nand2_1
*I *1046:A1 I *D gf180mcu_fd_sc_mcu7t5v0__aoi21_1
*I *1141:Z O *D gf180mcu_fd_sc_mcu7t5v0__clkbuf_1
*CAP
1 *1049:A2 8.1109e-05
2 *1047:I1 0.000154344
3 *1028:A2 0
4 *1046:A1 0.000108115
5 *1141:Z 0.000437648
6 *232:14 0.000831581
7 *232:12 0.00100065
8 *232:10 0.000641596
9 *232:10 *233:14 0
10 *1039:S *1046:A1 0
11 *1039:S *232:14 0
12 *1043:A1 *1046:A1 0.000182206
13 *1047:S *232:10 9.4546e-05
14 *1048:I *232:14 3.39687e-05
15 *1049:A1 *232:10 9.76593e-05
16 *1052:A1 *232:10 0
17 *1070:D *1049:A2 0
18 *1070:D *232:12 0
19 *76:20 *1049:A2 4.21513e-05
20 *156:14 *1046:A1 0
21 *156:16 *1046:A1 0
22 *166:10 *1046:A1 0.000354143
23 *166:10 *232:14 0.000317701
*RES
1 *1141:Z *232:10 12.78 
2 *232:10 *232:12 0.81 
3 *232:12 *232:14 6.21 
4 *232:14 *1046:A1 10.35 
5 *232:14 *1028:A2 9 
6 *232:12 *1047:I1 10.35 
7 *232:10 *1049:A2 9.81 
*END

*D_NET *233 0.00440321
*CONN
*I *1027:B I *D gf180mcu_fd_sc_mcu7t5v0__oai31_1
*I *1051:A1 I *D gf180mcu_fd_sc_mcu7t5v0__and2_1
*I *1047:I0 I *D gf180mcu_fd_sc_mcu7t5v0__mux2_2
*I *1135:Z O *D gf180mcu_fd_sc_mcu7t5v0__clkbuf_1
*CAP
1 *1027:B 0
2 *1051:A1 0.000127104
3 *1047:I0 6.89448e-05
4 *1135:Z 0.000488296
5 *233:14 0.000582884
6 *233:10 0.000875132
7 *1047:I0 *1069:RN 0
8 *1051:A1 *922:I 1.25794e-05
9 *1051:A1 *1069:RN 0
10 *1011:A1 *233:10 7.01651e-05
11 *1011:A1 *233:14 1.51153e-05
12 *1011:B *233:10 0.00108606
13 *1027:A1 *233:14 4.83522e-05
14 *1047:S *1051:A1 0
15 *1047:S *233:14 1.79237e-05
16 *1050:A1 *233:14 0.000115511
17 *1050:B2 *1051:A1 8.49208e-05
18 *1051:A2 *1051:A1 0.000115707
19 *1052:A1 *1051:A1 0.000449848
20 *1135:I *233:10 1.07374e-05
21 *76:20 *1047:I0 0.000138118
22 *76:20 *1051:A1 4.42932e-05
23 *142:21 *233:14 5.15282e-05
24 *232:10 *233:14 0
*RES
1 *1135:Z *233:10 9.09 
2 *233:10 *233:14 7.65 
3 *233:14 *1047:I0 9.81 
4 *233:14 *1051:A1 10.8 
5 *233:10 *1027:B 4.5 
*END

*D_NET *234 0.00300945
*CONN
*I *938:A1 I *D gf180mcu_fd_sc_mcu7t5v0__xnor2_1
*I *1128:Z O *D gf180mcu_fd_sc_mcu7t5v0__dlyb_1
*CAP
1 *938:A1 0.00114947
2 *1128:Z 0.00114947
3 *938:A1 *1083:RN 1.50763e-05
4 *938:A1 *240:61 9.57249e-05
5 *937:A1 *938:A1 0
6 *938:A2 *938:A1 0.000317853
7 *944:A2 *938:A1 0
8 *951:A4 *938:A1 1.23607e-05
9 *952:A2 *938:A1 1.79237e-05
10 *1085:D *938:A1 0.000200462
11 *1085:CLK *938:A1 4.57989e-05
12 *1111:I *938:A1 0
13 *199:44 *938:A1 5.30888e-06
*RES
1 *1128:Z *938:A1 18.27 
*END

*D_NET *235 0.0111789
*CONN
*I *1029:S I *D gf180mcu_fd_sc_mcu7t5v0__mux2_2
*I *1031:S I *D gf180mcu_fd_sc_mcu7t5v0__mux2_2
*I *1035:S I *D gf180mcu_fd_sc_mcu7t5v0__mux2_2
*I *1033:S I *D gf180mcu_fd_sc_mcu7t5v0__mux2_2
*I *1136:Z O *D gf180mcu_fd_sc_mcu7t5v0__buf_2
*CAP
1 *1029:S 0.000452999
2 *1031:S 0.000578648
3 *1035:S 0.000238188
4 *1033:S 0.000588184
5 *1136:Z 0.00075313
6 *235:12 0.000883046
7 *235:10 0.000935452
8 *1029:S *1029:I1 2.32821e-05
9 *1029:S *1062:SETN 0.000905787
10 *1033:S *1033:I1 7.191e-07
11 *1033:S *1038:I0 0
12 *1033:S *1064:SETN 3.12451e-05
13 *1033:S *1099:I 0.00112492
14 *1033:S *253:10 0.000758084
15 *1035:S *1035:I1 9.76136e-06
16 *235:10 *1099:I 0.00151628
17 *235:12 *1099:I 0.000126321
18 *1029:I0 *235:10 0.000210066
19 *1031:I0 *1029:S 2.93836e-05
20 *1031:I0 *1031:S 0.000497889
21 *1031:I0 *1035:S 0.000973315
22 *1032:I1 *1029:S 0
23 *1032:S *1029:S 2.30981e-05
24 *1033:I0 *1033:S 3.43442e-05
25 *1036:S *1033:S 0.000430467
26 *1044:S *1031:S 0
27 *1062:D *1029:S 0
28 *1066:D *235:10 5.42728e-05
*RES
1 *1136:Z *235:10 15.66 
2 *235:10 *235:12 0.45 
3 *235:12 *1033:S 15.66 
4 *235:12 *1035:S 11.61 
5 *235:10 *1031:S 10.35 
6 *1031:S *1029:S 13.23 
*END

*D_NET *236 0.00552541
*CONN
*I *991:A2 I *D gf180mcu_fd_sc_mcu7t5v0__xnor2_1
*I *993:A2 I *D gf180mcu_fd_sc_mcu7t5v0__aoi21_1
*I *994:A3 I *D gf180mcu_fd_sc_mcu7t5v0__and3_1
*I *1142:Z O *D gf180mcu_fd_sc_mcu7t5v0__dlyb_1
*CAP
1 *991:A2 1.58992e-05
2 *993:A2 0.000172255
3 *994:A3 0
4 *1142:Z 0.000240227
5 *236:24 0.00065807
6 *236:12 0.000741942
7 *993:A2 *936:A1 0.000426925
8 *236:24 *936:A1 0.000421819
9 *236:24 *1085:RN 0.000215839
10 *236:24 *240:48 0.000175025
11 *951:A1 *236:24 0
12 *951:A4 *991:A2 0.000295383
13 *951:A4 *236:12 0.000349789
14 *992:A2 *991:A2 0.000271242
15 *992:A2 *236:12 0.000222861
16 *993:A1 *993:A2 1.51153e-05
17 *995:A2 *993:A2 5.09573e-05
18 *995:A2 *236:24 0.000245458
19 *1000:A1 *236:24 0.000107748
20 *1085:D *236:12 2.32439e-05
21 *231:6 *236:24 0.000131345
22 *231:12 *236:12 7.41762e-05
23 *231:12 *236:24 0.00060325
24 *231:23 *236:12 6.68386e-05
*RES
1 *1142:Z *236:12 16.2 
2 *236:12 *236:24 15.48 
3 *236:24 *994:A3 4.5 
4 *236:24 *993:A2 6.57 
5 *236:12 *991:A2 5.31 
*END

*D_NET *237 0.00643525
*CONN
*I *929:I I *D gf180mcu_fd_sc_mcu7t5v0__clkinv_1
*I *1012:A2 I *D gf180mcu_fd_sc_mcu7t5v0__aoi21_1
*I *930:B I *D gf180mcu_fd_sc_mcu7t5v0__aoi21_1
*I *1005:C I *D gf180mcu_fd_sc_mcu7t5v0__aoi211_1
*I *1137:Z O *D gf180mcu_fd_sc_mcu7t5v0__clkbuf_1
*CAP
1 *929:I 3.20259e-05
2 *1012:A2 0.000446793
3 *930:B 0.000167327
4 *1005:C 7.5998e-05
5 *1137:Z 2.98865e-05
6 *237:36 0.00053058
7 *237:14 0.000448226
8 *237:8 0.000286549
9 *929:I *240:8 0.000146222
10 *929:I *240:118 0.000102753
11 *929:I *241:38 0.000213111
12 *930:B *1058:RN 0
13 *930:B *241:44 8.16511e-05
14 *1005:C *1058:RN 3.01487e-05
15 *237:14 *1058:RN 0.000254842
16 *237:14 *1101:I 0
17 *237:14 *240:8 0.000312144
18 *237:14 *241:38 8.29339e-05
19 *237:14 *241:44 0.000219713
20 *237:36 *240:8 0.000162001
21 *237:36 *241:38 0.000139482
22 *925:I *1012:A2 4.6613e-06
23 *930:A1 *930:B 0.00046835
24 *930:A1 *1005:C 3.85076e-05
25 *1006:A1 *1012:A2 0.000106536
26 *1012:B *1012:A2 1.69023e-06
27 *1019:A1 *1012:A2 0.000126898
28 *1019:A1 *237:8 0.000284981
29 *1058:D *930:B 0.00027267
30 *1058:D *1005:C 0
31 *1058:D *237:14 0
32 *38:16 *1005:C 0.000428433
33 *83:12 *930:B 1.34934e-05
34 *139:10 *1005:C 0.000557083
35 *146:18 *1012:A2 8.45762e-05
36 *146:18 *237:8 0.000284981
*RES
1 *1137:Z *237:8 9.81 
2 *237:8 *237:14 7.2 
3 *237:14 *1005:C 6.21 
4 *237:14 *930:B 15.84 
5 *237:8 *237:36 0.99 
6 *237:36 *1012:A2 12.15 
7 *237:36 *929:I 10.35 
*END

*D_NET *238 0.0180351
*CONN
*I *1073:RN I *D gf180mcu_fd_sc_mcu7t5v0__dffrnq_1
*I *1078:RN I *D gf180mcu_fd_sc_mcu7t5v0__dffrnq_1
*I *1079:RN I *D gf180mcu_fd_sc_mcu7t5v0__dffrnq_1
*I *1074:RN I *D gf180mcu_fd_sc_mcu7t5v0__dffrnq_1
*I *1075:RN I *D gf180mcu_fd_sc_mcu7t5v0__dffrnq_1
*I *1076:RN I *D gf180mcu_fd_sc_mcu7t5v0__dffrnq_1
*I *1062:SETN I *D gf180mcu_fd_sc_mcu7t5v0__dffsnq_1
*I *1063:SETN I *D gf180mcu_fd_sc_mcu7t5v0__dffsnq_1
*I *1065:SETN I *D gf180mcu_fd_sc_mcu7t5v0__dffsnq_1
*I *1064:SETN I *D gf180mcu_fd_sc_mcu7t5v0__dffsnq_1
*I *1099:Z O *D gf180mcu_fd_sc_mcu7t5v0__dlyb_1
*CAP
1 *1073:RN 7.77949e-05
2 *1078:RN 0.000204394
3 *1079:RN 0
4 *1074:RN 0.000287427
5 *1075:RN 0
6 *1076:RN 0.00116821
7 *1062:SETN 0.000488347
8 *1063:SETN 0
9 *1065:SETN 0.000314054
10 *1064:SETN 0.00042682
11 *1099:Z 0.000501593
12 *238:105 0.000590306
13 *238:99 0.00130567
14 *238:81 0.000923085
15 *238:73 0.00166413
16 *238:28 0.00035361
17 *238:24 0.000661643
18 *238:20 0.00119021
19 *1062:SETN *1029:I1 1.06178e-05
20 *1062:SETN *1031:I1 0.000538918
21 *1062:SETN *1032:I0 0.000433797
22 *1062:SETN *1034:I0 0.00010488
23 *1064:SETN *1033:I1 0
24 *1065:SETN *1031:I1 0
25 *1065:SETN *253:10 0.000200728
26 *238:24 *1034:I0 6.19008e-05
27 *238:28 *1031:I1 0
28 *939:A1 *238:99 0.000314959
29 *939:A1 *238:105 4.04291e-05
30 *949:A2 *1078:RN 0
31 *949:A2 *238:105 0
32 *965:A1 *238:99 0.000592487
33 *971:A2 *1078:RN 0.000193087
34 *973:A1 *1078:RN 8.35196e-05
35 *1029:S *1062:SETN 0.000905787
36 *1031:I0 *1062:SETN 3.01487e-05
37 *1033:I0 *1064:SETN 0.000216051
38 *1033:S *1064:SETN 3.12451e-05
39 *1034:I1 *1076:RN 0.000473735
40 *1038:S *1064:SETN 4.65286e-05
41 *1073:CLK *238:99 0.000229915
42 *1073:CLK *238:105 5.90118e-05
43 *1079:D *1078:RN 7.93835e-05
44 *1079:D *238:105 0.000169524
45 *179:8 *1073:RN 1.60094e-05
46 *179:8 *238:105 0
47 *186:6 *1074:RN 5.97457e-06
48 *187:12 *1074:RN 4.76605e-05
49 *187:25 *1074:RN 0
50 *188:10 *238:73 1.60094e-05
51 *188:10 *238:81 0
52 *188:10 *238:99 0.000620161
53 *197:6 *238:73 0
54 *197:6 *238:81 9.66175e-06
55 *197:8 *238:73 0
56 *197:20 *1065:SETN 2.89427e-06
57 *197:20 *1076:RN 0.000195939
58 *197:20 *238:20 3.12451e-05
59 *197:20 *238:24 0.000166798
60 *197:20 *238:28 5.78854e-06
61 *197:58 *238:81 0.000164778
62 *229:27 *1062:SETN 1.8029e-05
63 *229:31 *1062:SETN 4.84588e-05
64 *229:31 *1076:RN 9.39061e-05
65 *229:31 *238:24 3.31858e-06
66 *229:33 *1064:SETN 2.72633e-05
67 *229:33 *1065:SETN 0
68 *229:33 *1076:RN 0.000400957
69 *229:33 *238:20 0.000495207
70 *230:79 *1078:RN 0.000691085
*RES
1 *1099:Z *1064:SETN 12.42 
2 *1099:Z *238:20 5.85 
3 *238:20 *238:24 5.67 
4 *238:24 *238:28 4.77 
5 *238:28 *1065:SETN 7.11 
6 *238:28 *1063:SETN 4.5 
7 *238:24 *1062:SETN 15.12 
8 *238:20 *1076:RN 21.51 
9 *1076:RN *238:73 5.67 
10 *238:73 *238:81 13.5 
11 *238:81 *1075:RN 4.5 
12 *238:81 *1074:RN 6.57 
13 *238:73 *238:99 13.14 
14 *238:99 *238:105 7.38 
15 *238:105 *1079:RN 4.5 
16 *238:105 *1078:RN 7.38 
17 *238:99 *1073:RN 9.45 
*END

*D_NET *239 0.0207648
*CONN
*I *1072:RN I *D gf180mcu_fd_sc_mcu7t5v0__dffrnq_1
*I *1069:RN I *D gf180mcu_fd_sc_mcu7t5v0__dffrnq_1
*I *1070:RN I *D gf180mcu_fd_sc_mcu7t5v0__dffrnq_1
*I *1061:SETN I *D gf180mcu_fd_sc_mcu7t5v0__dffsnq_1
*I *1068:SETN I *D gf180mcu_fd_sc_mcu7t5v0__dffsnq_1
*I *1066:SETN I *D gf180mcu_fd_sc_mcu7t5v0__dffsnq_1
*I *1067:SETN I *D gf180mcu_fd_sc_mcu7t5v0__dffsnq_1
*I *1071:RN I *D gf180mcu_fd_sc_mcu7t5v0__dffrnq_1
*I *1100:Z O *D gf180mcu_fd_sc_mcu7t5v0__dlyb_1
*CAP
1 *1072:RN 0.00127202
2 *1069:RN 0.000314388
3 *1070:RN 4.06417e-05
4 *1061:SETN 0.00052188
5 *1068:SETN 0
6 *1066:SETN 0
7 *1067:SETN 0.000285764
8 *1071:RN 0.00025662
9 *1100:Z 0
10 *239:76 0.0022747
11 *239:49 0.00103904
12 *239:27 0.000339953
13 *239:23 0.00136649
14 *239:21 0.000878736
15 *239:19 0.000989063
16 *239:4 0.000514434
17 *1061:SETN *1030:I0 3.77715e-05
18 *1067:SETN *1037:I1 0.000133728
19 *1067:SETN *1040:I0 0.000220906
20 *1069:RN *922:I 4.85374e-05
21 *1071:RN *249:8 0
22 *1072:RN *1002:A2 0.000306679
23 *1072:RN *1003:A2 0
24 *1072:RN *241:38 0
25 *1072:RN *247:8 0.000106336
26 *239:19 *1099:I 0.000199194
27 *239:19 *241:8 1.39839e-05
28 *239:21 *1099:I 0.000134938
29 *239:23 *1099:I 0.0035929
30 *239:27 *1099:I 0.0001563
31 *239:49 *1040:I0 0.00055255
32 *239:76 *922:I 5.71512e-05
33 *239:76 *1008:A2 7.09298e-05
34 *239:76 *241:8 6.73244e-06
35 *239:76 *249:8 0.000157976
36 *239:76 *249:21 0.000193491
37 *924:I *239:19 9.41463e-06
38 *924:I *239:21 5.69699e-06
39 *924:I *239:23 3.77684e-06
40 *1007:A3 *1072:RN 7.90489e-05
41 *1008:A1 *1072:RN 2.20694e-05
42 *1009:A1 *1069:RN 8.26533e-06
43 *1010:A1 *1072:RN 9.84908e-05
44 *1010:B *1072:RN 7.01651e-05
45 *1010:B *239:76 7.65946e-06
46 *1011:A1 *1072:RN 0
47 *1011:A3 *1072:RN 1.6462e-05
48 *1011:B *1072:RN 0
49 *1025:A2 *1061:SETN 3.12451e-05
50 *1026:A3 *1072:RN 6.84426e-06
51 *1040:I1 *239:23 4.03724e-05
52 *1040:I1 *239:27 8.69455e-06
53 *1040:I1 *239:49 3.52246e-05
54 *1041:A2 *1061:SETN 9.04462e-05
55 *1047:I0 *1069:RN 0
56 *1050:A3 *1072:RN 7.65425e-05
57 *1050:A3 *239:76 0.000478014
58 *1051:A1 *1069:RN 0
59 *1051:A2 *239:76 0
60 *1053:A2 *239:76 3.87446e-05
61 *1054:A2 *239:76 1.06178e-05
62 *1071:D *239:23 3.72378e-05
63 *1117:I *1071:RN 0
64 *1126:I *1067:SETN 0.000570481
65 *1141:I *1069:RN 0.000101424
66 *40:65 *1072:RN 0
67 *58:10 *1071:RN 0
68 *58:10 *239:19 6.54133e-05
69 *74:29 *1072:RN 0
70 *76:16 *239:76 0.000133188
71 *77:12 *239:76 0.000223398
72 *142:10 *1069:RN 0.000635861
73 *144:19 *1072:RN 0.000108499
74 *156:6 *1061:SETN 0.00034119
75 *156:6 *239:49 9.98816e-05
76 *156:12 *239:49 9.3523e-05
77 *166:10 *1061:SETN 0.000597456
78 *166:10 *239:49 0.000183662
79 *173:8 *239:76 3.58953e-05
80 *229:10 *239:49 0.000316048
*RES
1 *1100:Z *239:4 4.5 
2 *239:4 *1071:RN 6.3 
3 *239:4 *239:19 6.66 
4 *239:19 *239:21 0.45 
5 *239:21 *239:23 9.63 
6 *239:23 *239:27 4.95 
7 *239:27 *1067:SETN 7.56 
8 *239:27 *1066:SETN 4.5 
9 *239:23 *239:49 9.99 
10 *239:49 *1068:SETN 4.5 
11 *239:49 *1061:SETN 10.26 
12 *239:21 *1070:RN 9.27 
13 *239:19 *239:76 11.25 
14 *239:76 *1069:RN 16.65 
15 *239:76 *1072:RN 23.13 
*END

*D_NET *240 0.0295686
*CONN
*I *1060:RN I *D gf180mcu_fd_sc_mcu7t5v0__dffrnq_1
*I *1059:RN I *D gf180mcu_fd_sc_mcu7t5v0__dffrnq_1
*I *1058:RN I *D gf180mcu_fd_sc_mcu7t5v0__dffrnq_1
*I *1085:RN I *D gf180mcu_fd_sc_mcu7t5v0__dffrnq_1
*I *1081:RN I *D gf180mcu_fd_sc_mcu7t5v0__dffrnq_1
*I *1084:RN I *D gf180mcu_fd_sc_mcu7t5v0__dffrnq_1
*I *1082:RN I *D gf180mcu_fd_sc_mcu7t5v0__dffrnq_1
*I *1083:RN I *D gf180mcu_fd_sc_mcu7t5v0__dffrnq_1
*I *1080:RN I *D gf180mcu_fd_sc_mcu7t5v0__dffrnq_1
*I *1077:RN I *D gf180mcu_fd_sc_mcu7t5v0__dffrnq_1
*I *1101:Z O *D gf180mcu_fd_sc_mcu7t5v0__dlyb_1
*CAP
1 *1060:RN 0.000407956
2 *1059:RN 0
3 *1058:RN 0.000146905
4 *1085:RN 0.000345646
5 *1081:RN 0.000432534
6 *1084:RN 0.00022148
7 *1082:RN 0.000192456
8 *1083:RN 2.89955e-05
9 *1080:RN 0.000632142
10 *1077:RN 1.13029e-05
11 *1101:Z 0
12 *240:118 0.00173832
13 *240:65 0.000475206
14 *240:61 0.00118624
15 *240:48 0.00110014
16 *240:44 0.00135639
17 *240:25 0.00134128
18 *240:16 0.0011716
19 *240:8 0.00146328
20 *240:6 0.00156354
21 *240:8 *241:44 4.34199e-06
22 *240:16 *1087:RN 0.000228124
23 *240:16 *241:44 0.000297791
24 *240:16 *241:46 4.22217e-05
25 *240:118 *241:38 6.84825e-05
26 *918:I *1060:RN 0
27 *929:I *240:8 0.000146222
28 *929:I *240:118 0.000102753
29 *930:A1 *1058:RN 2.60524e-05
30 *930:B *1058:RN 0
31 *934:A1 *1080:RN 9.57991e-05
32 *938:A1 *1083:RN 1.50763e-05
33 *938:A1 *240:61 9.57249e-05
34 *938:A2 *1083:RN 3.01487e-05
35 *947:A1 *1080:RN 0.000343265
36 *947:A2 *240:44 0.00109752
37 *950:A2 *240:16 0.0006118
38 *951:A1 *1085:RN 0
39 *951:A1 *240:44 0.00075429
40 *951:A2 *240:44 0.00075429
41 *951:A3 *1077:RN 4.83522e-05
42 *951:A3 *240:25 0.000370676
43 *951:A3 *240:44 3.54696e-05
44 *954:A2 *240:16 0.000943181
45 *980:A2 *1082:RN 0
46 *982:A1 *1084:RN 3.12377e-05
47 *986:A2 *240:61 0.000445488
48 *987:A1 *1084:RN 5.78854e-06
49 *987:B *1084:RN 3.73774e-06
50 *988:A3 *1084:RN 4.78178e-05
51 *989:A1 *1080:RN 0.000229831
52 *989:A2 *1080:RN 0.000237866
53 *993:B *1085:RN 9.85004e-05
54 *994:A1 *1085:RN 1.56942e-05
55 *995:A2 *1085:RN 2.97876e-05
56 *1005:C *1058:RN 3.01487e-05
57 *1018:A3 *240:118 2.77926e-05
58 *1019:A2 *240:8 7.584e-06
59 *1058:D *1058:RN 0
60 *1080:CLK *1080:RN 0.000678367
61 *1085:CLK *240:61 3.54696e-05
62 *1097:I *240:16 0.000197682
63 *25:18 *1077:RN 3.97987e-05
64 *25:18 *240:25 0.00011861
65 *25:18 *240:44 0.000401887
66 *25:18 *240:48 0
67 *25:18 *240:61 0
68 *25:18 *240:65 0
69 *40:14 *1060:RN 0.000391051
70 *40:45 *1060:RN 0
71 *83:12 *240:16 0
72 *105:14 *1080:RN 0.000445479
73 *105:14 *240:16 0
74 *105:22 *240:16 0.000335725
75 *112:14 *1080:RN 9.71379e-05
76 *145:14 *240:118 0
77 *146:18 *240:8 0.00030693
78 *146:50 *240:8 0
79 *146:50 *240:118 0
80 *180:8 *240:48 0.000310002
81 *180:10 *240:48 9.39061e-05
82 *180:10 *240:61 3.80703e-05
83 *182:10 *1085:RN 7.55765e-06
84 *183:17 *1085:RN 0.000630788
85 *184:10 *240:16 0.00021137
86 *184:14 *240:16 8.49448e-05
87 *189:8 *1080:RN 0.000238536
88 *189:8 *240:16 0.000445497
89 *189:18 *1080:RN 4.24724e-05
90 *193:6 *1081:RN 0
91 *193:10 *1081:RN 9.93861e-05
92 *193:34 *1084:RN 1.4382e-06
93 *193:34 *240:61 0.000346434
94 *193:34 *240:65 0.000247389
95 *194:12 *1081:RN 0.000223407
96 *194:12 *1084:RN 2.1573e-06
97 *199:14 *1080:RN 0.000158079
98 *199:44 *1083:RN 2.31089e-05
99 *199:44 *240:61 1.23607e-05
100 *199:48 *240:61 0.000800929
101 *199:52 *240:61 0.000117249
102 *226:14 *240:118 1.75283e-05
103 *231:12 *240:48 2.98938e-05
104 *231:23 *240:48 7.98363e-05
105 *236:24 *1085:RN 0.000215839
106 *236:24 *240:48 0.000175025
107 *237:14 *1058:RN 0.000254842
108 *237:14 *240:8 0.000312144
109 *237:36 *240:8 0.000162001
*RES
1 *1101:Z *240:6 9 
2 *240:6 *240:8 3.69 
3 *240:8 *240:16 18.45 
4 *240:16 *1077:RN 4.77 
5 *240:16 *240:25 1.17 
6 *240:25 *1080:RN 22.86 
7 *240:25 *240:44 14.04 
8 *240:44 *240:48 7.65 
9 *240:48 *1083:RN 4.77 
10 *240:48 *240:61 12.78 
11 *240:61 *240:65 5.13 
12 *240:65 *1082:RN 6.12 
13 *240:65 *1084:RN 5.85 
14 *240:61 *1081:RN 12.69 
15 *240:44 *1085:RN 12.42 
16 *240:8 *1058:RN 10.17 
17 *240:6 *240:118 16.92 
18 *240:118 *1059:RN 9 
19 *240:118 *1060:RN 11.88 
*END

*D_NET *241 0.0323088
*CONN
*I *1101:I I *D gf180mcu_fd_sc_mcu7t5v0__dlyb_1
*I *1089:RN I *D gf180mcu_fd_sc_mcu7t5v0__dffrnq_1
*I *1088:RN I *D gf180mcu_fd_sc_mcu7t5v0__dffrnq_1
*I *1086:RN I *D gf180mcu_fd_sc_mcu7t5v0__dffrnq_1
*I *1087:RN I *D gf180mcu_fd_sc_mcu7t5v0__dffrnq_1
*I *1100:I I *D gf180mcu_fd_sc_mcu7t5v0__dlyb_1
*I *1099:I I *D gf180mcu_fd_sc_mcu7t5v0__dlyb_1
*I *1102:Z O *D gf180mcu_fd_sc_mcu7t5v0__dlyb_1
*CAP
1 *1101:I 5.34155e-05
2 *1089:RN 0.000360649
3 *1088:RN 0.000181604
4 *1086:RN 0.000675844
5 *1087:RN 9.31968e-05
6 *1100:I 0.000332917
7 *1099:I 0.00172822
8 *1102:Z 0
9 *241:59 0.00234258
10 *241:46 0.00161675
11 *241:44 0.000737242
12 *241:38 0.00363861
13 *241:8 0.00219492
14 *241:4 0.0033808
15 *1099:I *1035:I1 0
16 *1099:I *1038:I0 0
17 *1099:I *1044:I0 0.000349465
18 *241:8 *249:8 5.48374e-05
19 *241:38 *1002:A2 2.83459e-05
20 *929:I *241:38 0.000213111
21 *930:A1 *241:44 0.000290674
22 *930:A2 *1089:RN 0.000107132
23 *930:A2 *241:59 4.34467e-06
24 *930:B *241:44 8.16511e-05
25 *995:A2 *1086:RN 8.429e-05
26 *998:A1 *241:59 0
27 *1000:A2 *1088:RN 0
28 *1002:A1 *241:38 0.000280356
29 *1006:A1 *241:38 1.36885e-05
30 *1006:A2 *241:38 0.00010803
31 *1006:A2 *241:44 2.70125e-05
32 *1008:A1 *241:38 0.000924538
33 *1010:B *241:8 3.01487e-05
34 *1010:B *241:38 0.00100824
35 *1033:S *1099:I 0.00112492
36 *1040:I1 *1099:I 2.54214e-05
37 *1043:A2 *1099:I 8.09827e-05
38 *1058:D *1101:I 0.000156008
39 *1058:D *241:44 2.48748e-05
40 *1066:D *1099:I 3.71764e-06
41 *1072:RN *241:38 0
42 *1086:D *1086:RN 1.84866e-05
43 *1088:CLK *1086:RN 4.20137e-05
44 *1102:I *1100:I 4.33839e-05
45 *1114:I *241:38 0
46 *1117:I *1100:I 0
47 *1127:I *241:38 0
48 *1139:I *241:38 6.93035e-05
49 *39:20 *241:38 0.000294153
50 *40:45 *241:38 0
51 *58:10 *1100:I 5.86206e-05
52 *58:10 *241:8 0.000198062
53 *58:10 *241:38 1.0415e-05
54 *74:8 *241:38 3.60189e-05
55 *74:51 *241:38 8.75026e-05
56 *83:12 *1087:RN 0.000168866
57 *83:12 *241:44 6.79568e-05
58 *83:12 *241:46 2.75886e-05
59 *132:19 *1086:RN 0.000118274
60 *139:10 *241:44 0.000112982
61 *184:10 *241:59 4.80547e-05
62 *185:10 *1086:RN 0.000466026
63 *185:10 *1088:RN 0
64 *185:14 *1086:RN 0.00114351
65 *200:6 *241:59 0
66 *200:8 *241:59 0
67 *226:14 *241:38 0
68 *231:12 *1086:RN 0.000109323
69 *235:10 *1099:I 0.00151628
70 *235:12 *1099:I 0.000126321
71 *237:14 *1101:I 0
72 *237:14 *241:38 8.29339e-05
73 *237:14 *241:44 0.000219713
74 *237:36 *241:38 0.000139482
75 *239:19 *1099:I 0.000199194
76 *239:19 *241:8 1.39839e-05
77 *239:21 *1099:I 0.000134938
78 *239:23 *1099:I 0.0035929
79 *239:27 *1099:I 0.0001563
80 *239:76 *241:8 6.73244e-06
81 *240:8 *241:44 4.34199e-06
82 *240:16 *1087:RN 0.000228124
83 *240:16 *241:44 0.000297791
84 *240:16 *241:46 4.22217e-05
85 *240:118 *241:38 6.84825e-05
*RES
1 *1102:Z *241:4 4.5 
2 *241:4 *241:8 5.85 
3 *241:8 *1099:I 29.79 
4 *241:8 *1100:I 11.16 
5 *241:4 *241:38 30.96 
6 *241:38 *241:44 4.77 
7 *241:44 *241:46 0.45 
8 *241:46 *1087:RN 10.89 
9 *241:46 *241:59 13.95 
10 *241:59 *1086:RN 20.79 
11 *241:59 *1088:RN 5.58 
12 *241:44 *1089:RN 11.43 
13 *241:38 *1101:I 9.45 
*END

*D_NET *242 0.00107344
*CONN
*I *948:A1 I *D gf180mcu_fd_sc_mcu7t5v0__xor2_1
*I *1129:Z O *D gf180mcu_fd_sc_mcu7t5v0__dlyb_1
*CAP
1 *948:A1 0.000258788
2 *1129:Z 0.000258788
3 *934:A1 *948:A1 0.000455766
4 *941:A1 *948:A1 0
5 *942:A2 *948:A1 0.000100101
*RES
1 *1129:Z *948:A1 20.34 
*END

*D_NET *243 0.000924296
*CONN
*I *944:A1 I *D gf180mcu_fd_sc_mcu7t5v0__xor2_1
*I *1130:Z O *D gf180mcu_fd_sc_mcu7t5v0__dlyb_1
*CAP
1 *944:A1 0.000207466
2 *1130:Z 0.000207466
3 *944:A1 *946:A1 0.000509363
4 *944:A2 *944:A1 0
*RES
1 *1130:Z *944:A1 11.16 
*END

*D_NET *244 0.00333076
*CONN
*I *946:A1 I *D gf180mcu_fd_sc_mcu7t5v0__xor2_1
*I *1131:Z O *D gf180mcu_fd_sc_mcu7t5v0__dlyb_1
*CAP
1 *946:A1 0.000757215
2 *1131:Z 0.000757215
3 *944:A1 *946:A1 0.000509363
4 *944:A2 *946:A1 1.68677e-06
5 *951:A1 *946:A1 0.00088562
6 *951:A2 *946:A1 8.19347e-05
7 *993:B *946:A1 3.40214e-05
8 *1111:I *946:A1 0
9 *1128:I *946:A1 0
10 *1130:I *946:A1 0
11 *25:18 *946:A1 0.000303707
*RES
1 *1131:Z *946:A1 16.56 
*END

*D_NET *245 0.00674704
*CONN
*I *936:A1 I *D gf180mcu_fd_sc_mcu7t5v0__xnor2_1
*I *1132:Z O *D gf180mcu_fd_sc_mcu7t5v0__dlyb_1
*CAP
1 *936:A1 0.00138182
2 *1132:Z 0.00138182
3 *936:A1 *931:A1 8.52804e-05
4 *931:A2 *936:A1 0
5 *951:A1 *936:A1 0.000230994
6 *993:A2 *936:A1 0.000426925
7 *995:A2 *936:A1 0.000554286
8 *995:A3 *936:A1 0.000231436
9 *996:A2 *936:A1 0.000209064
10 *1087:D *936:A1 0
11 *1087:CLK *936:A1 0.000247296
12 *1093:I *936:A1 0.000110119
13 *1098:I *936:A1 3.00709e-05
14 *105:22 *936:A1 3.55118e-05
15 *132:8 *936:A1 0.00107263
16 *184:14 *936:A1 9.7773e-05
17 *196:15 *936:A1 3.38355e-05
18 *196:19 *936:A1 0.000105777
19 *200:43 *936:A1 8.93953e-05
20 *231:6 *936:A1 1.19375e-06
21 *236:24 *936:A1 0.000421819
*RES
1 *1132:Z *936:A1 33.03 
*END

*D_NET *246 0.000991634
*CONN
*I *931:A1 I *D gf180mcu_fd_sc_mcu7t5v0__xor2_1
*I *1133:Z O *D gf180mcu_fd_sc_mcu7t5v0__dlyb_1
*CAP
1 *931:A1 0.0004349
2 *1133:Z 0.0004349
3 *931:A2 *931:A1 2.65444e-06
4 *936:A1 *931:A1 8.52804e-05
5 *1131:I *931:A1 0
6 *1132:I *931:A1 3.38999e-05
*RES
1 *1133:Z *931:A1 12.33 
*END

*D_NET *247 0.00415779
*CONN
*I *1002:A2 I *D gf180mcu_fd_sc_mcu7t5v0__nand2_1
*I *1056:C I *D gf180mcu_fd_sc_mcu7t5v0__oai211_1
*I *1057:A1 I *D gf180mcu_fd_sc_mcu7t5v0__oai21_1
*I *1072:Q O *D gf180mcu_fd_sc_mcu7t5v0__dffrnq_1
*CAP
1 *1002:A2 0.000212277
2 *1056:C 0.00014591
3 *1057:A1 0.000180827
4 *1072:Q 0
5 *247:8 0.000532798
6 *247:6 0.000418339
7 *1002:A1 *1002:A2 7.55765e-06
8 *1004:B2 *1002:A2 3.22122e-05
9 *1007:A3 *1002:A2 6.39127e-06
10 *1026:A1 *1056:C 9.30128e-05
11 *1026:A2 *1056:C 2.46572e-06
12 *1026:A3 *1057:A1 0
13 *1026:A3 *247:8 0
14 *1056:B *1056:C 3.42246e-05
15 *1057:A2 *1057:A1 2.08301e-05
16 *1057:B *1056:C 0.000956654
17 *1072:D *1057:A1 0.000365454
18 *1072:RN *1002:A2 0.000306679
19 *1072:RN *247:8 0.000106336
20 *39:32 *1056:C 0.000161479
21 *74:14 *1056:C 1.23607e-05
22 *157:6 *1056:C 0.000183662
23 *157:6 *1057:A1 0.000163704
24 *225:10 *1002:A2 4.71078e-05
25 *225:10 *1057:A1 4.82191e-05
26 *225:10 *247:8 9.09415e-05
27 *241:38 *1002:A2 2.83459e-05
*RES
1 *1072:Q *247:6 9 
2 *247:6 *247:8 1.71 
3 *247:8 *1057:A1 10.98 
4 *247:8 *1056:C 11.79 
5 *247:6 *1002:A2 11.16 
*END

*D_NET *248 0.00158129
*CONN
*I *922:I I *D gf180mcu_fd_sc_mcu7t5v0__clkinv_1
*I *1069:Q O *D gf180mcu_fd_sc_mcu7t5v0__dffrnq_1
*CAP
1 *922:I 0.000437477
2 *1069:Q 0.000437477
3 *922:I *1008:A2 0.000294421
4 *1051:A1 *922:I 1.25794e-05
5 *1052:A1 *922:I 0
6 *1069:RN *922:I 4.85374e-05
7 *76:10 *922:I 7.54325e-05
8 *77:12 *922:I 0
9 *142:10 *922:I 0.00021821
10 *201:8 *922:I 0
11 *239:76 *922:I 5.71512e-05
*RES
1 *1069:Q *922:I 21.6 
*END

*D_NET *249 0.00367343
*CONN
*I *1008:A2 I *D gf180mcu_fd_sc_mcu7t5v0__xor2_1
*I *923:I I *D gf180mcu_fd_sc_mcu7t5v0__clkinv_1
*I *1053:A1 I *D gf180mcu_fd_sc_mcu7t5v0__nand2_1
*I *1070:Q O *D gf180mcu_fd_sc_mcu7t5v0__dffrnq_1
*CAP
1 *1008:A2 0.000132471
2 *923:I 0
3 *1053:A1 0.000225753
4 *1070:Q 0.000252838
5 *249:21 0.000226837
6 *249:8 0.000572957
7 *922:I *1008:A2 0.000294421
8 *924:I *1053:A1 1.99655e-05
9 *1010:B *1008:A2 0.000924538
10 *1010:B *249:8 0.000175108
11 *1010:B *249:21 0.000296484
12 *1054:A1 *1053:A1 2.70026e-05
13 *1071:RN *249:8 0
14 *77:12 *1008:A2 4.78178e-05
15 *239:76 *1008:A2 7.09298e-05
16 *239:76 *249:8 0.000157976
17 *239:76 *249:21 0.000193491
18 *241:8 *249:8 5.48374e-05
*RES
1 *1070:Q *249:8 6.84 
2 *249:8 *1053:A1 15.03 
3 *249:8 *249:21 1.89 
4 *249:21 *923:I 4.5 
5 *249:21 *1008:A2 7.2 
*END

*D_NET *250 0.00783461
*CONN
*I *1055:A1 I *D gf180mcu_fd_sc_mcu7t5v0__nand2_1
*I *1003:A2 I *D gf180mcu_fd_sc_mcu7t5v0__aoi211_1
*I *1030:I0 I *D gf180mcu_fd_sc_mcu7t5v0__mux2_2
*I *1061:Q O *D gf180mcu_fd_sc_mcu7t5v0__dffsnq_1
*CAP
1 *1055:A1 0
2 *1003:A2 0.000422627
3 *1030:I0 0.000845319
4 *1061:Q 0.00173293
5 *250:30 0.00131024
6 *1030:I0 *1041:B 0.000171132
7 *1007:A1 *1003:A2 0.000324664
8 *1007:A2 *1003:A2 0.000768615
9 *1007:A3 *1003:A2 3.08083e-05
10 *1011:B *1003:A2 9.85004e-05
11 *1029:I0 *1030:I0 0
12 *1030:S *1030:I0 0.00090332
13 *1041:A2 *1030:I0 8.68281e-06
14 *1055:A2 *1003:A2 0.000256882
15 *1057:B *1003:A2 3.08083e-05
16 *1061:SETN *1030:I0 3.77715e-05
17 *1072:RN *1003:A2 0
18 *1072:CLK *250:30 0.000288458
19 *1135:I *1003:A2 5.97457e-06
20 *1135:I *250:30 0
21 *166:10 *1030:I0 0.000222872
22 *198:15 *1030:I0 0
23 *198:17 *250:30 0.000248965
24 *225:10 *1003:A2 0.000126032
*RES
1 *1061:Q *1030:I0 25.74 
2 *1061:Q *250:30 20.88 
3 *250:30 *1003:A2 19.17 
4 *250:30 *1055:A1 4.5 
*END

*D_NET *251 0.00163652
*CONN
*I *1029:I1 I *D gf180mcu_fd_sc_mcu7t5v0__mux2_2
*I *1032:I0 I *D gf180mcu_fd_sc_mcu7t5v0__mux2_2
*I *1062:Q O *D gf180mcu_fd_sc_mcu7t5v0__dffsnq_1
*CAP
1 *1029:I1 0.000246918
2 *1032:I0 0.000217875
3 *1062:Q 6.718e-05
4 *251:8 0.000531973
5 *1029:I0 *1032:I0 0
6 *1029:I0 *251:8 0
7 *1029:S *1029:I1 2.32821e-05
8 *1062:SETN *1029:I1 1.06178e-05
9 *1062:SETN *1032:I0 0.000433797
10 *198:36 *1029:I1 0
11 *229:27 *1032:I0 6.95539e-05
12 *229:27 *251:8 3.53257e-05
*RES
1 *1062:Q *251:8 9.63 
2 *251:8 *1032:I0 11.16 
3 *251:8 *1029:I1 10.71 
*END

*D_NET *252 0.00257357
*CONN
*I *1034:I0 I *D gf180mcu_fd_sc_mcu7t5v0__mux2_2
*I *1031:I1 I *D gf180mcu_fd_sc_mcu7t5v0__mux2_2
*I *1063:Q O *D gf180mcu_fd_sc_mcu7t5v0__dffsnq_1
*CAP
1 *1034:I0 0.000235457
2 *1031:I1 0.000187705
3 *1063:Q 0
4 *252:4 0.000423161
5 *1032:I1 *1031:I1 7.55765e-06
6 *1032:I1 *1034:I0 4.80547e-05
7 *1062:SETN *1031:I1 0.000538918
8 *1062:SETN *1034:I0 0.00010488
9 *1065:SETN *1031:I1 0
10 *229:31 *1034:I0 0.000965934
11 *238:24 *1034:I0 6.19008e-05
12 *238:28 *1031:I1 0
*RES
1 *1063:Q *252:4 4.5 
2 *252:4 *1031:I1 15.3 
3 *252:4 *1034:I0 16.74 
*END

*D_NET *253 0.0049639
*CONN
*I *1033:I1 I *D gf180mcu_fd_sc_mcu7t5v0__mux2_2
*I *1036:I0 I *D gf180mcu_fd_sc_mcu7t5v0__mux2_2
*I *1064:Q O *D gf180mcu_fd_sc_mcu7t5v0__dffsnq_1
*CAP
1 *1033:I1 3.67349e-05
2 *1036:I0 0.000462848
3 *1064:Q 0.000546209
4 *253:10 0.00104579
5 *253:10 *1038:I0 0.000215362
6 *1033:S *1033:I1 7.191e-07
7 *1033:S *253:10 0.000758084
8 *1034:I1 *1033:I1 2.31089e-05
9 *1036:S *1036:I0 0.000603649
10 *1036:S *253:10 0.000152103
11 *1038:S *253:10 0.00012813
12 *1064:SETN *1033:I1 0
13 *1064:CLK *1036:I0 0.000782958
14 *1065:SETN *253:10 0.000200728
15 *229:33 *253:10 7.47548e-06
*RES
1 *1064:Q *253:10 14.4 
2 *253:10 *1036:I0 14.04 
3 *253:10 *1033:I1 9.27 
*END

*D_NET *254 0.00208146
*CONN
*I *1035:I1 I *D gf180mcu_fd_sc_mcu7t5v0__mux2_2
*I *1038:I0 I *D gf180mcu_fd_sc_mcu7t5v0__mux2_2
*I *1065:Q O *D gf180mcu_fd_sc_mcu7t5v0__dffsnq_1
*CAP
1 *1035:I1 0.000240517
2 *1038:I0 0.000358714
3 *1065:Q 0
4 *254:6 0.000599232
5 *1033:S *1038:I0 0
6 *1035:S *1035:I1 9.76136e-06
7 *1036:I1 *1035:I1 7.07604e-05
8 *1036:I1 *1038:I0 0.00025171
9 *1038:S *1038:I0 0.000324664
10 *1099:I *1035:I1 0
11 *1099:I *1038:I0 0
12 *1121:I *1038:I0 1.07374e-05
13 *253:10 *1038:I0 0.000215362
*RES
1 *1065:Q *254:6 9 
2 *254:6 *1038:I0 13.14 
3 *254:6 *1035:I1 10.8 
*END

*D_NET *255 0.00490886
*CONN
*I *1040:I0 I *D gf180mcu_fd_sc_mcu7t5v0__mux2_2
*I *1037:I1 I *D gf180mcu_fd_sc_mcu7t5v0__mux2_2
*I *1066:Q O *D gf180mcu_fd_sc_mcu7t5v0__dffsnq_1
*CAP
1 *1040:I0 0.000376429
2 *1037:I1 0.000779639
3 *1066:Q 0.000208568
4 *255:8 0.00136464
5 *1037:I1 *256:8 0
6 *255:8 *1044:I0 2.36813e-05
7 *255:8 *256:8 1.61174e-05
8 *1037:I0 *1037:I1 0.000455766
9 *1039:S *255:8 1.27202e-05
10 *1040:I1 *1040:I0 3.88459e-05
11 *1040:I1 *255:8 0.000228548
12 *1042:A1 *1037:I1 0.000455592
13 *1067:SETN *1037:I1 0.000133728
14 *1067:SETN *1040:I0 0.000220906
15 *1123:I *1037:I1 2.31089e-05
16 *1126:I *1037:I1 1.80179e-05
17 *198:77 *1037:I1 0
18 *239:49 *1040:I0 0.00055255
*RES
1 *1066:Q *255:8 6.48 
2 *255:8 *1037:I1 21.06 
3 *255:8 *1040:I0 8.1 
*END

*D_NET *256 0.00294257
*CONN
*I *1044:I0 I *D gf180mcu_fd_sc_mcu7t5v0__mux2_2
*I *1039:I1 I *D gf180mcu_fd_sc_mcu7t5v0__mux2_2
*I *1067:Q O *D gf180mcu_fd_sc_mcu7t5v0__dffsnq_1
*CAP
1 *1044:I0 0.000772169
2 *1039:I1 0
3 *1067:Q 0.000174856
4 *256:8 0.000947025
5 *1037:I1 *256:8 0
6 *1039:I0 *256:8 2.06277e-05
7 *1039:S *1044:I0 1.56779e-05
8 *1039:S *256:8 7.55765e-06
9 *1042:A1 *1044:I0 0
10 *1043:A2 *1044:I0 0.000445479
11 *1045:A1 *1044:I0 0.000169917
12 *1099:I *1044:I0 0.000349465
13 *198:77 *1044:I0 0
14 *255:8 *1044:I0 2.36813e-05
15 *255:8 *256:8 1.61174e-05
*RES
1 *1067:Q *256:8 5.76 
2 *256:8 *1039:I1 4.5 
3 *256:8 *1044:I0 20.34 
*END

*D_NET *257 0.00134433
*CONN
*I *1041:B I *D gf180mcu_fd_sc_mcu7t5v0__aoi21_1
*I *1068:Q O *D gf180mcu_fd_sc_mcu7t5v0__dffsnq_1
*CAP
1 *1041:B 0.00044015
2 *1068:Q 0.00044015
3 *1030:I0 *1041:B 0.000171132
4 *1069:CLK *1041:B 0.000164306
5 *166:10 *1041:B 0
6 *198:15 *1041:B 0.000110619
7 *229:10 *1041:B 1.79733e-05
*RES
1 *1068:Q *1041:B 13.14 
*END
