*SPEF "ieee 1481-1999"
*DESIGN "udma_uart_tx"
*DATE "16:53:00 Saturday July 25, 2026"
*VENDOR "The OpenROAD Project"
*PROGRAM "OpenROAD"
*VERSION "dcf36133a369abc8f3c5e5738cd4d82e4903c0e0"
*DESIGN_FLOW "NAME_SCOPE LOCAL" "PIN_CAP NONE"
*DIVIDER /
*DELIMITER :
*BUS_DELIMITER []
*T_UNIT 1 NS
*C_UNIT 1 PF
*R_UNIT 1 OHM
*L_UNIT 1 HENRY

*NAME_MAP
*3 busy_o
*4 cfg_bits_i[0]
*5 cfg_bits_i[1]
*6 cfg_div_i[0]
*7 cfg_div_i[10]
*8 cfg_div_i[11]
*9 cfg_div_i[12]
*10 cfg_div_i[13]
*11 cfg_div_i[14]
*12 cfg_div_i[15]
*13 cfg_div_i[1]
*14 cfg_div_i[2]
*15 cfg_div_i[3]
*16 cfg_div_i[4]
*17 cfg_div_i[5]
*18 cfg_div_i[6]
*19 cfg_div_i[7]
*20 cfg_div_i[8]
*21 cfg_div_i[9]
*22 cfg_en_i
*23 cfg_parity_en_i
*24 cfg_stop_bits_i
*25 clk_i
*26 rstn_i
*27 tx_data_i[0]
*28 tx_data_i[1]
*29 tx_data_i[2]
*30 tx_data_i[3]
*31 tx_data_i[4]
*32 tx_data_i[5]
*33 tx_data_i[6]
*34 tx_data_i[7]
*35 tx_o
*36 tx_ready_o
*37 tx_valid_i
*38 CS\[0\]
*39 CS\[1\]
*40 CS\[2\]
*41 _000_
*42 _001_
*43 _002_
*44 _003_
*45 _004_
*46 _005_
*47 _006_
*48 _007_
*49 _008_
*50 _009_
*51 _010_
*52 _011_
*53 _012_
*54 _013_
*55 _014_
*56 _015_
*57 _016_
*58 _017_
*59 _018_
*60 _019_
*61 _020_
*62 _021_
*63 _022_
*64 _023_
*65 _024_
*66 _025_
*67 _026_
*68 _027_
*69 _028_
*70 _029_
*71 _030_
*72 _031_
*73 _032_
*74 _033_
*75 _034_
*76 _035_
*77 _036_
*78 _037_
*79 _038_
*80 _039_
*81 _040_
*82 _041_
*83 _042_
*84 _043_
*85 _044_
*86 _045_
*87 _046_
*88 _047_
*89 _048_
*90 _049_
*91 _050_
*92 _051_
*93 _052_
*94 _053_
*95 _054_
*96 _055_
*97 _056_
*98 _057_
*99 _058_
*100 _059_
*101 _060_
*102 _061_
*103 _062_
*104 _063_
*105 _064_
*106 _065_
*107 _066_
*108 _067_
*109 _068_
*110 _069_
*111 _070_
*112 _071_
*113 _072_
*114 _073_
*115 _074_
*116 _075_
*117 _076_
*118 _077_
*119 _078_
*120 _079_
*121 _080_
*122 _081_
*123 _082_
*124 _083_
*125 _084_
*126 _085_
*127 _086_
*128 _087_
*129 _088_
*130 _089_
*131 _090_
*132 _091_
*133 _092_
*134 _093_
*135 _094_
*136 _095_
*137 _096_
*138 _097_
*139 _098_
*140 _099_
*141 _100_
*142 _101_
*143 _102_
*144 _103_
*145 _104_
*146 _105_
*147 _106_
*148 _107_
*149 _108_
*150 _109_
*151 _110_
*152 _111_
*153 _112_
*154 _113_
*155 _114_
*156 _115_
*157 _116_
*158 _117_
*159 _118_
*160 _119_
*161 _120_
*162 _121_
*163 _122_
*164 _123_
*165 _124_
*166 _125_
*167 _126_
*168 _127_
*169 _128_
*170 _129_
*171 _130_
*172 _131_
*173 _132_
*174 _133_
*175 _134_
*176 _135_
*177 _136_
*178 _137_
*179 baud_cnt\[0\]
*180 baud_cnt\[10\]
*181 baud_cnt\[11\]
*182 baud_cnt\[12\]
*183 baud_cnt\[13\]
*184 baud_cnt\[14\]
*185 baud_cnt\[15\]
*186 baud_cnt\[1\]
*187 baud_cnt\[2\]
*188 baud_cnt\[3\]
*189 baud_cnt\[4\]
*190 baud_cnt\[5\]
*191 baud_cnt\[6\]
*192 baud_cnt\[7\]
*193 baud_cnt\[8\]
*194 baud_cnt\[9\]
*195 bit_done
*196 clknet_0_clk_i
*197 clknet_2_0__leaf_clk_i
*198 clknet_2_1__leaf_clk_i
*199 clknet_2_2__leaf_clk_i
*200 clknet_2_3__leaf_clk_i
*201 net1
*202 net10
*203 net11
*204 net12
*205 net13
*206 net14
*207 net15
*208 net16
*209 net17
*210 net18
*211 net19
*212 net2
*213 net20
*214 net21
*215 net22
*216 net23
*217 net24
*218 net25
*219 net26
*220 net27
*221 net28
*222 net29
*223 net3
*224 net30
*225 net31
*226 net32
*227 net33
*228 net34
*229 net35
*230 net36
*231 net37
*232 net38
*233 net39
*234 net4
*235 net40
*236 net41
*237 net42
*238 net43
*239 net44
*240 net45
*241 net46
*242 net5
*243 net6
*244 net7
*245 net8
*246 net9
*247 parity_bit
*248 reg_bit_count\[0\]
*249 reg_bit_count\[1\]
*250 reg_data\[0\]
*251 reg_data\[1\]
*252 reg_data\[2\]
*253 reg_data\[3\]
*254 reg_data\[4\]
*255 reg_data\[5\]
*256 reg_data\[6\]
*257 reg_data\[7\]
*258 FILLER_0_104
*259 FILLER_0_106
*260 FILLER_0_123
*261 FILLER_0_131
*262 FILLER_0_135
*263 FILLER_0_172
*264 FILLER_0_2
*265 FILLER_0_206
*266 FILLER_0_222
*267 FILLER_0_230
*268 FILLER_0_36
*269 FILLER_0_70
*270 FILLER_10_107
*271 FILLER_10_173
*272 FILLER_10_177
*273 FILLER_10_18
*274 FILLER_10_185
*275 FILLER_10_189
*276 FILLER_10_2
*277 FILLER_10_28
*278 FILLER_10_32
*279 FILLER_10_34
*280 FILLER_10_37
*281 FILLER_10_53
*282 FILLER_10_89
*283 FILLER_11_10
*284 FILLER_11_128
*285 FILLER_11_136
*286 FILLER_11_14
*287 FILLER_11_142
*288 FILLER_11_163
*289 FILLER_11_195
*290 FILLER_11_2
*291 FILLER_11_212
*292 FILLER_11_49
*293 FILLER_11_65
*294 FILLER_11_69
*295 FILLER_11_72
*296 FILLER_11_76
*297 FILLER_12_107
*298 FILLER_12_123
*299 FILLER_12_125
*300 FILLER_12_162
*301 FILLER_12_170
*302 FILLER_12_174
*303 FILLER_12_177
*304 FILLER_12_209
*305 FILLER_12_225
*306 FILLER_12_229
*307 FILLER_12_231
*308 FILLER_12_30
*309 FILLER_12_34
*310 FILLER_12_37
*311 FILLER_12_53
*312 FILLER_12_61
*313 FILLER_13_10
*314 FILLER_13_128
*315 FILLER_13_136
*316 FILLER_13_142
*317 FILLER_13_174
*318 FILLER_13_190
*319 FILLER_13_2
*320 FILLER_13_204
*321 FILLER_13_208
*322 FILLER_13_212
*323 FILLER_13_228
*324 FILLER_13_46
*325 FILLER_13_72
*326 FILLER_13_74
*327 FILLER_13_91
*328 FILLER_13_93
*329 FILLER_14_102
*330 FILLER_14_104
*331 FILLER_14_107
*332 FILLER_14_171
*333 FILLER_14_177
*334 FILLER_14_185
*335 FILLER_14_187
*336 FILLER_14_209
*337 FILLER_14_213
*338 FILLER_14_215
*339 FILLER_14_34
*340 FILLER_14_43
*341 FILLER_14_59
*342 FILLER_14_67
*343 FILLER_14_77
*344 FILLER_15_10
*345 FILLER_15_103
*346 FILLER_15_12
*347 FILLER_15_135
*348 FILLER_15_139
*349 FILLER_15_142
*350 FILLER_15_158
*351 FILLER_15_166
*352 FILLER_15_170
*353 FILLER_15_2
*354 FILLER_15_212
*355 FILLER_15_228
*356 FILLER_15_47
*357 FILLER_15_63
*358 FILLER_15_67
*359 FILLER_15_69
*360 FILLER_15_72
*361 FILLER_15_76
*362 FILLER_15_87
*363 FILLER_15_95
*364 FILLER_16_107
*365 FILLER_16_171
*366 FILLER_16_177
*367 FILLER_16_18
*368 FILLER_16_185
*369 FILLER_16_189
*370 FILLER_16_191
*371 FILLER_16_217
*372 FILLER_16_225
*373 FILLER_16_229
*374 FILLER_16_231
*375 FILLER_16_53
*376 FILLER_16_61
*377 FILLER_16_65
*378 FILLER_17_142
*379 FILLER_17_158
*380 FILLER_17_166
*381 FILLER_17_170
*382 FILLER_17_184
*383 FILLER_17_192
*384 FILLER_17_203
*385 FILLER_17_221
*386 FILLER_17_229
*387 FILLER_17_231
*388 FILLER_17_40
*389 FILLER_17_56
*390 FILLER_17_64
*391 FILLER_17_68
*392 FILLER_17_72
*393 FILLER_17_88
*394 FILLER_18_100
*395 FILLER_18_104
*396 FILLER_18_107
*397 FILLER_18_123
*398 FILLER_18_127
*399 FILLER_18_163
*400 FILLER_18_185
*401 FILLER_18_201
*402 FILLER_18_211
*403 FILLER_18_215
*404 FILLER_18_30
*405 FILLER_18_34
*406 FILLER_18_37
*407 FILLER_18_44
*408 FILLER_18_76
*409 FILLER_18_92
*410 FILLER_19_109
*411 FILLER_19_117
*412 FILLER_19_121
*413 FILLER_19_138
*414 FILLER_19_142
*415 FILLER_19_189
*416 FILLER_19_197
*417 FILLER_19_203
*418 FILLER_19_207
*419 FILLER_19_209
*420 FILLER_19_212
*421 FILLER_19_228
*422 FILLER_19_30
*423 FILLER_19_32
*424 FILLER_19_47
*425 FILLER_19_63
*426 FILLER_19_67
*427 FILLER_19_69
*428 FILLER_19_72
*429 FILLER_19_74
*430 FILLER_19_97
*431 FILLER_19_99
*432 FILLER_1_115
*433 FILLER_1_123
*434 FILLER_1_174
*435 FILLER_1_2
*436 FILLER_1_206
*437 FILLER_1_212
*438 FILLER_1_66
*439 FILLER_1_72
*440 FILLER_1_80
*441 FILLER_20_104
*442 FILLER_20_107
*443 FILLER_20_109
*444 FILLER_20_150
*445 FILLER_20_166
*446 FILLER_20_174
*447 FILLER_20_197
*448 FILLER_20_199
*449 FILLER_20_207
*450 FILLER_20_223
*451 FILLER_20_231
*452 FILLER_20_30
*453 FILLER_20_34
*454 FILLER_20_50
*455 FILLER_20_64
*456 FILLER_20_68
*457 FILLER_21_103
*458 FILLER_21_132
*459 FILLER_21_142
*460 FILLER_21_174
*461 FILLER_21_18
*462 FILLER_21_186
*463 FILLER_21_194
*464 FILLER_21_196
*465 FILLER_21_204
*466 FILLER_21_208
*467 FILLER_21_218
*468 FILLER_21_22
*469 FILLER_21_226
*470 FILLER_21_230
*471 FILLER_21_57
*472 FILLER_21_65
*473 FILLER_21_69
*474 FILLER_21_84
*475 FILLER_21_92
*476 FILLER_21_96
*477 FILLER_22_102
*478 FILLER_22_104
*479 FILLER_22_107
*480 FILLER_22_115
*481 FILLER_22_177
*482 FILLER_22_18
*483 FILLER_22_185
*484 FILLER_22_20
*485 FILLER_22_211
*486 FILLER_22_215
*487 FILLER_22_37
*488 FILLER_22_41
*489 FILLER_22_53
*490 FILLER_22_69
*491 FILLER_22_81
*492 FILLER_22_94
*493 FILLER_23_10
*494 FILLER_23_135
*495 FILLER_23_139
*496 FILLER_23_14
*497 FILLER_23_142
*498 FILLER_23_174
*499 FILLER_23_182
*500 FILLER_23_2
*501 FILLER_23_27
*502 FILLER_23_59
*503 FILLER_23_67
*504 FILLER_23_69
*505 FILLER_23_72
*506 FILLER_24_101
*507 FILLER_24_107
*508 FILLER_24_171
*509 FILLER_24_177
*510 FILLER_24_185
*511 FILLER_24_2
*512 FILLER_24_203
*513 FILLER_24_214
*514 FILLER_24_34
*515 FILLER_24_37
*516 FILLER_25_136
*517 FILLER_25_142
*518 FILLER_25_158
*519 FILLER_25_166
*520 FILLER_25_170
*521 FILLER_25_172
*522 FILLER_25_18
*523 FILLER_25_2
*524 FILLER_25_207
*525 FILLER_25_209
*526 FILLER_25_212
*527 FILLER_25_26
*528 FILLER_25_36
*529 FILLER_25_68
*530 FILLER_25_72
*531 FILLER_26_103
*532 FILLER_26_107
*533 FILLER_26_111
*534 FILLER_26_121
*535 FILLER_26_125
*536 FILLER_26_127
*537 FILLER_26_138
*538 FILLER_26_170
*539 FILLER_26_174
*540 FILLER_26_177
*541 FILLER_26_18
*542 FILLER_26_181
*543 FILLER_26_183
*544 FILLER_26_2
*545 FILLER_26_218
*546 FILLER_26_226
*547 FILLER_26_230
*548 FILLER_26_26
*549 FILLER_26_46
*550 FILLER_26_78
*551 FILLER_27_150
*552 FILLER_27_182
*553 FILLER_27_198
*554 FILLER_27_2
*555 FILLER_27_206
*556 FILLER_27_212
*557 FILLER_27_59
*558 FILLER_27_6
*559 FILLER_27_67
*560 FILLER_27_69
*561 FILLER_27_8
*562 FILLER_28_10
*563 FILLER_28_101
*564 FILLER_28_107
*565 FILLER_28_111
*566 FILLER_28_162
*567 FILLER_28_170
*568 FILLER_28_174
*569 FILLER_28_177
*570 FILLER_28_2
*571 FILLER_28_209
*572 FILLER_28_225
*573 FILLER_28_229
*574 FILLER_28_231
*575 FILLER_28_45
*576 FILLER_29_123
*577 FILLER_29_127
*578 FILLER_29_137
*579 FILLER_29_139
*580 FILLER_29_142
*581 FILLER_29_2
*582 FILLER_29_206
*583 FILLER_29_212
*584 FILLER_29_228
*585 FILLER_29_42
*586 FILLER_29_46
*587 FILLER_29_55
*588 FILLER_29_6
*589 FILLER_29_63
*590 FILLER_29_67
*591 FILLER_29_69
*592 FILLER_29_72
*593 FILLER_29_76
*594 FILLER_29_78
*595 FILLER_2_102
*596 FILLER_2_104
*597 FILLER_2_122
*598 FILLER_2_124
*599 FILLER_2_167
*600 FILLER_2_177
*601 FILLER_2_185
*602 FILLER_2_2
*603 FILLER_2_220
*604 FILLER_2_228
*605 FILLER_2_34
*606 FILLER_2_37
*607 FILLER_2_53
*608 FILLER_2_61
*609 FILLER_2_98
*610 FILLER_30_102
*611 FILLER_30_104
*612 FILLER_30_115
*613 FILLER_30_131
*614 FILLER_30_163
*615 FILLER_30_171
*616 FILLER_30_177
*617 FILLER_30_18
*618 FILLER_30_2
*619 FILLER_30_209
*620 FILLER_30_225
*621 FILLER_30_229
*622 FILLER_30_231
*623 FILLER_30_28
*624 FILLER_30_32
*625 FILLER_30_34
*626 FILLER_30_37
*627 FILLER_30_69
*628 FILLER_30_73
*629 FILLER_30_86
*630 FILLER_31_10
*631 FILLER_31_117
*632 FILLER_31_135
*633 FILLER_31_139
*634 FILLER_31_142
*635 FILLER_31_2
*636 FILLER_31_206
*637 FILLER_31_212
*638 FILLER_31_228
*639 FILLER_31_48
*640 FILLER_31_64
*641 FILLER_31_68
*642 FILLER_31_72
*643 FILLER_31_80
*644 FILLER_31_84
*645 FILLER_32_138
*646 FILLER_32_172
*647 FILLER_32_2
*648 FILLER_32_206
*649 FILLER_32_222
*650 FILLER_32_230
*651 FILLER_32_36
*652 FILLER_32_70
*653 FILLER_3_108
*654 FILLER_3_124
*655 FILLER_3_142
*656 FILLER_3_174
*657 FILLER_3_2
*658 FILLER_3_206
*659 FILLER_3_212
*660 FILLER_3_229
*661 FILLER_3_231
*662 FILLER_3_34
*663 FILLER_3_50
*664 FILLER_3_54
*665 FILLER_4_107
*666 FILLER_4_123
*667 FILLER_4_127
*668 FILLER_4_164
*669 FILLER_4_172
*670 FILLER_4_174
*671 FILLER_4_177
*672 FILLER_4_181
*673 FILLER_4_2
*674 FILLER_4_217
*675 FILLER_4_225
*676 FILLER_4_229
*677 FILLER_4_231
*678 FILLER_4_34
*679 FILLER_4_37
*680 FILLER_4_69
*681 FILLER_4_73
*682 FILLER_5_123
*683 FILLER_5_131
*684 FILLER_5_133
*685 FILLER_5_157
*686 FILLER_5_189
*687 FILLER_5_193
*688 FILLER_5_195
*689 FILLER_5_2
*690 FILLER_5_212
*691 FILLER_5_66
*692 FILLER_6_122
*693 FILLER_6_130
*694 FILLER_6_134
*695 FILLER_6_150
*696 FILLER_6_166
*697 FILLER_6_174
*698 FILLER_6_177
*699 FILLER_6_193
*700 FILLER_6_195
*701 FILLER_6_2
*702 FILLER_6_209
*703 FILLER_6_225
*704 FILLER_6_229
*705 FILLER_6_231
*706 FILLER_6_34
*707 FILLER_6_37
*708 FILLER_6_69
*709 FILLER_6_77
*710 FILLER_6_81
*711 FILLER_6_97
*712 FILLER_7_129
*713 FILLER_7_137
*714 FILLER_7_139
*715 FILLER_7_155
*716 FILLER_7_187
*717 FILLER_7_191
*718 FILLER_7_2
*719 FILLER_7_208
*720 FILLER_7_216
*721 FILLER_7_66
*722 FILLER_7_72
*723 FILLER_7_88
*724 FILLER_7_92
*725 FILLER_8_101
*726 FILLER_8_107
*727 FILLER_8_166
*728 FILLER_8_174
*729 FILLER_8_181
*730 FILLER_8_197
*731 FILLER_8_199
*732 FILLER_8_2
*733 FILLER_8_216
*734 FILLER_8_34
*735 FILLER_8_37
*736 FILLER_9_104
*737 FILLER_9_120
*738 FILLER_9_124
*739 FILLER_9_142
*740 FILLER_9_146
*741 FILLER_9_162
*742 FILLER_9_2
*743 FILLER_9_200
*744 FILLER_9_224
*745 FILLER_9_66
*746 FILLER_9_72
*747 PHY_EDGE_ROW_0_Left_33
*748 PHY_EDGE_ROW_0_Right_0
*749 PHY_EDGE_ROW_10_Left_43
*750 PHY_EDGE_ROW_10_Right_10
*751 PHY_EDGE_ROW_11_Left_44
*752 PHY_EDGE_ROW_11_Right_11
*753 PHY_EDGE_ROW_12_Left_45
*754 PHY_EDGE_ROW_12_Right_12
*755 PHY_EDGE_ROW_13_Left_46
*756 PHY_EDGE_ROW_13_Right_13
*757 PHY_EDGE_ROW_14_Left_47
*758 PHY_EDGE_ROW_14_Right_14
*759 PHY_EDGE_ROW_15_Left_48
*760 PHY_EDGE_ROW_15_Right_15
*761 PHY_EDGE_ROW_16_Left_49
*762 PHY_EDGE_ROW_16_Right_16
*763 PHY_EDGE_ROW_17_Left_50
*764 PHY_EDGE_ROW_17_Right_17
*765 PHY_EDGE_ROW_18_Left_51
*766 PHY_EDGE_ROW_18_Right_18
*767 PHY_EDGE_ROW_19_Left_52
*768 PHY_EDGE_ROW_19_Right_19
*769 PHY_EDGE_ROW_1_Left_34
*770 PHY_EDGE_ROW_1_Right_1
*771 PHY_EDGE_ROW_20_Left_53
*772 PHY_EDGE_ROW_20_Right_20
*773 PHY_EDGE_ROW_21_Left_54
*774 PHY_EDGE_ROW_21_Right_21
*775 PHY_EDGE_ROW_22_Left_55
*776 PHY_EDGE_ROW_22_Right_22
*777 PHY_EDGE_ROW_23_Left_56
*778 PHY_EDGE_ROW_23_Right_23
*779 PHY_EDGE_ROW_24_Left_57
*780 PHY_EDGE_ROW_24_Right_24
*781 PHY_EDGE_ROW_25_Left_58
*782 PHY_EDGE_ROW_25_Right_25
*783 PHY_EDGE_ROW_26_Left_59
*784 PHY_EDGE_ROW_26_Right_26
*785 PHY_EDGE_ROW_27_Left_60
*786 PHY_EDGE_ROW_27_Right_27
*787 PHY_EDGE_ROW_28_Left_61
*788 PHY_EDGE_ROW_28_Right_28
*789 PHY_EDGE_ROW_29_Left_62
*790 PHY_EDGE_ROW_29_Right_29
*791 PHY_EDGE_ROW_2_Left_35
*792 PHY_EDGE_ROW_2_Right_2
*793 PHY_EDGE_ROW_30_Left_63
*794 PHY_EDGE_ROW_30_Right_30
*795 PHY_EDGE_ROW_31_Left_64
*796 PHY_EDGE_ROW_31_Right_31
*797 PHY_EDGE_ROW_32_Left_65
*798 PHY_EDGE_ROW_32_Right_32
*799 PHY_EDGE_ROW_3_Left_36
*800 PHY_EDGE_ROW_3_Right_3
*801 PHY_EDGE_ROW_4_Left_37
*802 PHY_EDGE_ROW_4_Right_4
*803 PHY_EDGE_ROW_5_Left_38
*804 PHY_EDGE_ROW_5_Right_5
*805 PHY_EDGE_ROW_6_Left_39
*806 PHY_EDGE_ROW_6_Right_6
*807 PHY_EDGE_ROW_7_Left_40
*808 PHY_EDGE_ROW_7_Right_7
*809 PHY_EDGE_ROW_8_Left_41
*810 PHY_EDGE_ROW_8_Right_8
*811 PHY_EDGE_ROW_9_Left_42
*812 PHY_EDGE_ROW_9_Right_9
*813 TAP_TAPCELL_ROW_0_66
*814 TAP_TAPCELL_ROW_0_67
*815 TAP_TAPCELL_ROW_0_68
*816 TAP_TAPCELL_ROW_0_69
*817 TAP_TAPCELL_ROW_0_70
*818 TAP_TAPCELL_ROW_0_71
*819 TAP_TAPCELL_ROW_10_100
*820 TAP_TAPCELL_ROW_10_101
*821 TAP_TAPCELL_ROW_10_99
*822 TAP_TAPCELL_ROW_11_102
*823 TAP_TAPCELL_ROW_11_103
*824 TAP_TAPCELL_ROW_11_104
*825 TAP_TAPCELL_ROW_12_105
*826 TAP_TAPCELL_ROW_12_106
*827 TAP_TAPCELL_ROW_12_107
*828 TAP_TAPCELL_ROW_13_108
*829 TAP_TAPCELL_ROW_13_109
*830 TAP_TAPCELL_ROW_13_110
*831 TAP_TAPCELL_ROW_14_111
*832 TAP_TAPCELL_ROW_14_112
*833 TAP_TAPCELL_ROW_14_113
*834 TAP_TAPCELL_ROW_15_114
*835 TAP_TAPCELL_ROW_15_115
*836 TAP_TAPCELL_ROW_15_116
*837 TAP_TAPCELL_ROW_16_117
*838 TAP_TAPCELL_ROW_16_118
*839 TAP_TAPCELL_ROW_16_119
*840 TAP_TAPCELL_ROW_17_120
*841 TAP_TAPCELL_ROW_17_121
*842 TAP_TAPCELL_ROW_17_122
*843 TAP_TAPCELL_ROW_18_123
*844 TAP_TAPCELL_ROW_18_124
*845 TAP_TAPCELL_ROW_18_125
*846 TAP_TAPCELL_ROW_19_126
*847 TAP_TAPCELL_ROW_19_127
*848 TAP_TAPCELL_ROW_19_128
*849 TAP_TAPCELL_ROW_1_72
*850 TAP_TAPCELL_ROW_1_73
*851 TAP_TAPCELL_ROW_1_74
*852 TAP_TAPCELL_ROW_20_129
*853 TAP_TAPCELL_ROW_20_130
*854 TAP_TAPCELL_ROW_20_131
*855 TAP_TAPCELL_ROW_21_132
*856 TAP_TAPCELL_ROW_21_133
*857 TAP_TAPCELL_ROW_21_134
*858 TAP_TAPCELL_ROW_22_135
*859 TAP_TAPCELL_ROW_22_136
*860 TAP_TAPCELL_ROW_22_137
*861 TAP_TAPCELL_ROW_23_138
*862 TAP_TAPCELL_ROW_23_139
*863 TAP_TAPCELL_ROW_23_140
*864 TAP_TAPCELL_ROW_24_141
*865 TAP_TAPCELL_ROW_24_142
*866 TAP_TAPCELL_ROW_24_143
*867 TAP_TAPCELL_ROW_25_144
*868 TAP_TAPCELL_ROW_25_145
*869 TAP_TAPCELL_ROW_25_146
*870 TAP_TAPCELL_ROW_26_147
*871 TAP_TAPCELL_ROW_26_148
*872 TAP_TAPCELL_ROW_26_149
*873 TAP_TAPCELL_ROW_27_150
*874 TAP_TAPCELL_ROW_27_151
*875 TAP_TAPCELL_ROW_27_152
*876 TAP_TAPCELL_ROW_28_153
*877 TAP_TAPCELL_ROW_28_154
*878 TAP_TAPCELL_ROW_28_155
*879 TAP_TAPCELL_ROW_29_156
*880 TAP_TAPCELL_ROW_29_157
*881 TAP_TAPCELL_ROW_29_158
*882 TAP_TAPCELL_ROW_2_75
*883 TAP_TAPCELL_ROW_2_76
*884 TAP_TAPCELL_ROW_2_77
*885 TAP_TAPCELL_ROW_30_159
*886 TAP_TAPCELL_ROW_30_160
*887 TAP_TAPCELL_ROW_30_161
*888 TAP_TAPCELL_ROW_31_162
*889 TAP_TAPCELL_ROW_31_163
*890 TAP_TAPCELL_ROW_31_164
*891 TAP_TAPCELL_ROW_32_165
*892 TAP_TAPCELL_ROW_32_166
*893 TAP_TAPCELL_ROW_32_167
*894 TAP_TAPCELL_ROW_32_168
*895 TAP_TAPCELL_ROW_32_169
*896 TAP_TAPCELL_ROW_32_170
*897 TAP_TAPCELL_ROW_3_78
*898 TAP_TAPCELL_ROW_3_79
*899 TAP_TAPCELL_ROW_3_80
*900 TAP_TAPCELL_ROW_4_81
*901 TAP_TAPCELL_ROW_4_82
*902 TAP_TAPCELL_ROW_4_83
*903 TAP_TAPCELL_ROW_5_84
*904 TAP_TAPCELL_ROW_5_85
*905 TAP_TAPCELL_ROW_5_86
*906 TAP_TAPCELL_ROW_6_87
*907 TAP_TAPCELL_ROW_6_88
*908 TAP_TAPCELL_ROW_6_89
*909 TAP_TAPCELL_ROW_7_90
*910 TAP_TAPCELL_ROW_7_91
*911 TAP_TAPCELL_ROW_7_92
*912 TAP_TAPCELL_ROW_8_93
*913 TAP_TAPCELL_ROW_8_94
*914 TAP_TAPCELL_ROW_8_95
*915 TAP_TAPCELL_ROW_9_96
*916 TAP_TAPCELL_ROW_9_97
*917 TAP_TAPCELL_ROW_9_98
*918 _138_
*919 _139_
*920 _140_
*921 _141_
*922 _142_
*923 _143_
*924 _144_
*925 _145_
*926 _146_
*927 _147_
*928 _148_
*929 _149_
*930 _150_
*931 _151_
*932 _152_
*933 _153_
*934 _154_
*935 _155_
*936 _156_
*937 _157_
*938 _158_
*939 _159_
*940 _160_
*941 _161_
*942 _162_
*943 _163_
*944 _164_
*945 _165_
*946 _166_
*947 _167_
*948 _168_
*949 _169_
*950 _170_
*951 _171_
*952 _172_
*953 _173_
*954 _174_
*955 _175_
*956 _176_
*957 _177_
*958 _178_
*959 _179_
*960 _180_
*961 _181_
*962 _182_
*963 _183_
*964 _184_
*965 _185_
*966 _186_
*967 _187_
*968 _188_
*969 _189_
*970 _190_
*971 _191_
*972 _192_
*973 _193_
*974 _194_
*975 _195_
*976 _196_
*977 _197_
*978 _198_
*979 _199_
*980 _200_
*981 _201_
*982 _202_
*983 _203_
*984 _204_
*985 _205_
*986 _206_
*987 _207_
*988 _208_
*989 _209_
*990 _210_
*991 _211_
*992 _212_
*993 _213_
*994 _214_
*995 _215_
*996 _216_
*997 _217_
*998 _218_
*999 _219_
*1000 _220_
*1001 _221_
*1002 _222_
*1003 _223_
*1004 _224_
*1005 _225_
*1006 _226_
*1007 _227_
*1008 _228_
*1009 _229_
*1010 _230_
*1011 _231_
*1012 _232_
*1013 _233_
*1014 _234_
*1015 _235_
*1016 _236_
*1017 _237_
*1018 _238_
*1019 _239_
*1020 _240_
*1021 _241_
*1022 _242_
*1023 _243_
*1024 _244_
*1025 _245_
*1026 _246_
*1027 _247_
*1028 _248_
*1029 _249_
*1030 _250_
*1031 _251_
*1032 _252_
*1033 _253_
*1034 _254_
*1035 _255_
*1036 _256_
*1037 _257_
*1038 _258_
*1039 _259_
*1040 _260_
*1041 _261_
*1042 _262_
*1043 _263_
*1044 _264_
*1045 _265_
*1046 _266_
*1047 _267_
*1048 _268_
*1049 _269_
*1050 _270_
*1051 _271_
*1052 _272_
*1053 _273_
*1054 _274_
*1055 _275_
*1056 _276_
*1057 _277_
*1058 _278_
*1059 _279_
*1060 _280_
*1061 _281_
*1062 _282_
*1063 _283_
*1064 _284_
*1065 _285_
*1066 _286_
*1067 _287_
*1068 _288_
*1069 _289_
*1070 _290_
*1071 _291_
*1072 _292_
*1073 _293_
*1074 _294_
*1075 _295_
*1076 _296_
*1077 _297_
*1078 _298_
*1079 _299_
*1080 _300_
*1081 _301_
*1082 _302_
*1083 _303_
*1084 _304_
*1085 _305_
*1086 _306_
*1087 _307_
*1088 _308_
*1089 _309_
*1090 clkbuf_0_clk_i
*1091 clkbuf_2_0__f_clk_i
*1092 clkbuf_2_1__f_clk_i
*1093 clkbuf_2_2__f_clk_i
*1094 clkbuf_2_3__f_clk_i
*1095 clkload0
*1096 clkload1
*1097 fanout36
*1098 fanout37
*1099 fanout43
*1100 fanout44
*1101 fanout45
*1102 fanout46
*1103 input1
*1104 input10
*1105 input11
*1106 input12
*1107 input13
*1108 input14
*1109 input15
*1110 input16
*1111 input17
*1112 input18
*1113 input19
*1114 input2
*1115 input20
*1116 input21
*1117 input22
*1118 input23
*1119 input24
*1120 input25
*1121 input26
*1122 input27
*1123 input28
*1124 input29
*1125 input3
*1126 input30
*1127 input31
*1128 input4
*1129 input5
*1130 input6
*1131 input7
*1132 input8
*1133 input9
*1134 max_cap35
*1135 max_cap39
*1136 max_cap40
*1137 max_cap42
*1138 output32
*1139 output33
*1140 output34
*1141 wire38
*1142 wire41

*PORTS
busy_o O
cfg_bits_i[0] I
cfg_bits_i[1] I
cfg_div_i[0] I
cfg_div_i[10] I
cfg_div_i[11] I
cfg_div_i[12] I
cfg_div_i[13] I
cfg_div_i[14] I
cfg_div_i[15] I
cfg_div_i[1] I
cfg_div_i[2] I
cfg_div_i[3] I
cfg_div_i[4] I
cfg_div_i[5] I
cfg_div_i[6] I
cfg_div_i[7] I
cfg_div_i[8] I
cfg_div_i[9] I
cfg_en_i I
cfg_parity_en_i I
cfg_stop_bits_i I
clk_i I
rstn_i I
tx_data_i[0] I
tx_data_i[1] I
tx_data_i[2] I
tx_data_i[3] I
tx_data_i[4] I
tx_data_i[5] I
tx_data_i[6] I
tx_data_i[7] I
tx_o O
tx_ready_o O
tx_valid_i I

*D_NET *3 0.00106409
*CONN
*P busy_o O
*I *1138:Z O *D gf180mcu_fd_sc_mcu7t5v0__dlyb_1
*CAP
1 busy_o 0.000532047
2 *1138:Z 0.000532047
*RES
1 *1138:Z busy_o 13.2361 
*END

*D_NET *4 0.00101128
*CONN
*P cfg_bits_i[0] I
*I *1103:I I *D gf180mcu_fd_sc_mcu7t5v0__dlyb_1
*CAP
1 cfg_bits_i[0] 0.000198173
2 *1103:I 0.000198173
3 *1103:I *1114:I 0.000614937
*RES
1 cfg_bits_i[0] *1103:I 12.5081 
*END

*D_NET *5 0.00148777
*CONN
*P cfg_bits_i[1] I
*I *1114:I I *D gf180mcu_fd_sc_mcu7t5v0__dlyb_1
*CAP
1 cfg_bits_i[1] 0.000436416
2 *1114:I 0.000436416
3 *1114:I *241:38 0
4 *1103:I *1114:I 0.000614937
*RES
1 cfg_bits_i[1] *1114:I 14.0681 
*END

*D_NET *6 0.00241527
*CONN
*P cfg_div_i[0] I
*I *1125:I I *D gf180mcu_fd_sc_mcu7t5v0__dlyb_1
*CAP
1 cfg_div_i[0] 0.000797787
2 *1125:I 0.000797787
3 *1125:I *933:A1 0.000163527
4 *1125:I *943:A1 3.93698e-05
5 *1125:I *1078:CLK 2.47364e-05
6 *1125:I *1079:D 0
7 *1125:I *1106:I 0.000592062
*RES
1 cfg_div_i[0] *1125:I 16.644 
*END

*D_NET *7 0.00360731
*CONN
*P cfg_div_i[10] I
*I *1128:I I *D gf180mcu_fd_sc_mcu7t5v0__dlyb_1
*CAP
1 cfg_div_i[10] 0.000752784
2 *1128:I 0.000752784
3 *1128:I *946:A1 0
4 *1128:I *1111:I 0.00209892
5 *1128:I *1130:I 2.81522e-06
*RES
1 cfg_div_i[10] *1128:I 22.8321 
*END

*D_NET *8 0.00113917
*CONN
*P cfg_div_i[11] I
*I *1129:I I *D gf180mcu_fd_sc_mcu7t5v0__dlyb_1
*CAP
1 cfg_div_i[11] 0.000569585
2 *1129:I 0.000569585
3 *1129:I *1110:I 0
4 *1129:I *1112:I 0
*RES
1 cfg_div_i[11] *1129:I 13.524 
*END

*D_NET *9 0.0029967
*CONN
*P cfg_div_i[12] I
*I *1130:I I *D gf180mcu_fd_sc_mcu7t5v0__dlyb_1
*CAP
1 cfg_div_i[12] 0.00124587
2 *1130:I 0.00124587
3 *1130:I *946:A1 0
4 *1130:I *1131:I 0.000502156
5 *1128:I *1130:I 2.81522e-06
*RES
1 cfg_div_i[12] *1130:I 24.4961 
*END

*D_NET *10 0.00229369
*CONN
*P cfg_div_i[13] I
*I *1131:I I *D gf180mcu_fd_sc_mcu7t5v0__dlyb_1
*CAP
1 cfg_div_i[13] 0.000775176
2 *1131:I 0.000775176
3 *1131:I *931:A1 0
4 *1131:I *1132:I 0.00024118
5 *1130:I *1131:I 0.000502156
*RES
1 cfg_div_i[13] *1131:I 13.1041 
*END

*D_NET *11 0.00366261
*CONN
*P cfg_div_i[14] I
*I *1132:I I *D gf180mcu_fd_sc_mcu7t5v0__dlyb_1
*CAP
1 cfg_div_i[14] 0.00107382
2 *1132:I 0.00107382
3 *1132:I *931:A1 3.48351e-05
4 *1132:I *1133:I 0.00123896
5 *1131:I *1132:I 0.00024118
*RES
1 cfg_div_i[14] *1132:I 24.4961 
*END

*D_NET *12 0.00314783
*CONN
*P cfg_div_i[15] I
*I *1133:I I *D gf180mcu_fd_sc_mcu7t5v0__dlyb_1
*CAP
1 cfg_div_i[15] 0.000954434
2 *1133:I 0.000954434
3 *1132:I *1133:I 0.00123896
*RES
1 cfg_div_i[15] *1133:I 22.8804 
*END

*D_NET *13 0.00132858
*CONN
*P cfg_div_i[1] I
*I *1104:I I *D gf180mcu_fd_sc_mcu7t5v0__dlyb_1
*CAP
1 cfg_div_i[1] 0.000372466
2 *1104:I 0.000372466
3 *1104:I *1105:I 0.000583651
4 *1104:I *1108:I 0
*RES
1 cfg_div_i[1] *1104:I 13.316 
*END

*D_NET *14 0.00212316
*CONN
*P cfg_div_i[2] I
*I *1105:I I *D gf180mcu_fd_sc_mcu7t5v0__dlyb_1
*CAP
1 cfg_div_i[2] 0.000232828
2 *1105:I 0.000232828
3 *1105:I *1106:I 0.00107385
4 *1104:I *1105:I 0.000583651
*RES
1 cfg_div_i[2] *1105:I 14.148 
*END

*D_NET *15 0.00292993
*CONN
*P cfg_div_i[3] I
*I *1106:I I *D gf180mcu_fd_sc_mcu7t5v0__dlyb_1
*CAP
1 cfg_div_i[3] 0.000632006
2 *1106:I 0.000632006
3 *1106:I *1078:CLK 0
4 *1106:I *197:83 0
5 *1105:I *1106:I 0.00107385
6 *1125:I *1106:I 0.000592062
*RES
1 cfg_div_i[3] *1106:I 16.852 
*END

*D_NET *16 0.00146612
*CONN
*P cfg_div_i[4] I
*I *1107:I I *D gf180mcu_fd_sc_mcu7t5v0__dlyb_1
*CAP
1 cfg_div_i[4] 0.000436825
2 *1107:I 0.000436825
3 *1107:I *1109:I 0.000592475
4 *1107:I *1110:I 0
*RES
1 cfg_div_i[4] *1107:I 13.94 
*END

*D_NET *17 0.000967513
*CONN
*P cfg_div_i[5] I
*I *1108:I I *D gf180mcu_fd_sc_mcu7t5v0__dlyb_1
*CAP
1 cfg_div_i[5] 0.000483757
2 *1108:I 0.000483757
3 *1108:I *1109:I 0
4 *1104:I *1108:I 0
*RES
1 cfg_div_i[5] *1108:I 13.108 
*END

*D_NET *18 0.000990614
*CONN
*P cfg_div_i[6] I
*I *1109:I I *D gf180mcu_fd_sc_mcu7t5v0__dlyb_1
*CAP
1 cfg_div_i[6] 0.00019907
2 *1109:I 0.00019907
3 *1107:I *1109:I 0.000592475
4 *1108:I *1109:I 0
*RES
1 cfg_div_i[6] *1109:I 12.38 
*END

*D_NET *19 0.00115878
*CONN
*P cfg_div_i[7] I
*I *1110:I I *D gf180mcu_fd_sc_mcu7t5v0__dlyb_1
*CAP
1 cfg_div_i[7] 0.000579392
2 *1110:I 0.000579392
3 *1107:I *1110:I 0
4 *1129:I *1110:I 0
*RES
1 cfg_div_i[7] *1110:I 13.524 
*END

*D_NET *20 0.00408927
*CONN
*P cfg_div_i[8] I
*I *1111:I I *D gf180mcu_fd_sc_mcu7t5v0__dlyb_1
*CAP
1 cfg_div_i[8] 0.000995174
2 *1111:I 0.000995174
3 *1111:I *938:A1 0
4 *1111:I *946:A1 0
5 *1128:I *1111:I 0.00209892
*RES
1 cfg_div_i[8] *1111:I 24.4961 
*END

*D_NET *21 0.00100122
*CONN
*P cfg_div_i[9] I
*I *1112:I I *D gf180mcu_fd_sc_mcu7t5v0__dlyb_1
*CAP
1 cfg_div_i[9] 0.000500612
2 *1112:I 0.000500612
3 *1129:I *1112:I 0
*RES
1 cfg_div_i[9] *1112:I 12.9 
*END

*D_NET *22 0.00236925
*CONN
*P cfg_en_i I
*I *1113:I I *D gf180mcu_fd_sc_mcu7t5v0__dlyb_1
*CAP
1 cfg_en_i 0.000202712
2 *1113:I 0.000202712
3 *1113:I tx_ready_o 0.000203739
4 *1113:I *1115:I 0.00116996
5 *1113:I *1116:I 0.000590123
6 *1113:I *213:10 0
*RES
1 cfg_en_i *1113:I 14.4841 
*END

*D_NET *23 0.00273073
*CONN
*P cfg_parity_en_i I
*I *1115:I I *D gf180mcu_fd_sc_mcu7t5v0__dlyb_1
*CAP
1 cfg_parity_en_i 0.000780383
2 *1115:I 0.000780383
3 *1113:I *1115:I 0.00116996
*RES
1 cfg_parity_en_i *1115:I 17.0841 
*END

*D_NET *24 0.00166393
*CONN
*P cfg_stop_bits_i I
*I *1116:I I *D gf180mcu_fd_sc_mcu7t5v0__dlyb_1
*CAP
1 cfg_stop_bits_i 0.000145219
2 *1116:I 0.000145219
3 *1116:I tx_ready_o 0.000783372
4 *1116:I *213:10 0
5 *1113:I *1116:I 0.000590123
*RES
1 cfg_stop_bits_i *1116:I 13.2361 
*END

*D_NET *25 0.0135493
*CONN
*P clk_i I
*I *1090:I I *D gf180mcu_fd_sc_mcu7t5v0__clkbuf_16
*CAP
1 clk_i 0.00524006
2 *1090:I 0.000107407
3 *25:18 0.00534746
4 *1090:I *950:A1 0
5 *1090:I *950:A4 9.33987e-05
6 *1090:I *951:A3 4.77547e-05
7 *25:18 *937:A2 0.000188834
8 *25:18 *946:A1 0.000315871
9 *25:18 *950:A3 0.00010019
10 *25:18 *950:A4 0.00033317
11 *25:18 *951:A1 0.000120401
12 *25:18 *951:A2 0.000166197
13 *25:18 *951:A3 0.000186679
14 *25:18 *983:A1 0
15 *25:18 *993:B 1.26329e-05
16 *25:18 *1077:RN 4.18042e-05
17 *25:18 *105:14 0
18 *25:18 *182:16 0.000268766
19 *25:18 *183:17 0.000444243
20 *25:18 *193:34 0
21 *25:18 *199:52 0
22 *25:18 *240:25 0.000124557
23 *25:18 *240:44 0.000409834
24 *25:18 *240:48 0
25 *25:18 *240:61 0
26 *25:18 *240:65 0
*RES
1 clk_i *25:18 47.296 
2 *25:18 *1090:I 5.436 
*END

*D_NET *26 0.00196313
*CONN
*P rstn_i I
*I *1117:I I *D gf180mcu_fd_sc_mcu7t5v0__dlyb_1
*CAP
1 rstn_i 0.000931282
2 *1117:I 0.000931282
3 *1117:I *1071:RN 0
4 *1117:I *1100:I 0
5 *1117:I *1102:I 0
6 *1117:I *58:10 0.000100568
*RES
1 rstn_i *1117:I 16.5641 
*END

*D_NET *27 0.00354683
*CONN
*P tx_data_i[0] I
*I *1118:I I *D gf180mcu_fd_sc_mcu7t5v0__dlyb_1
*CAP
1 tx_data_i[0] 0.000758968
2 *1118:I 0.000758968
3 *1118:I *1122:I 0.000538951
4 *1118:I *1123:I 0.000153305
5 *1118:I *1124:I 0.000692314
6 *1118:I *1126:I 0.00064432
*RES
1 tx_data_i[0] *1118:I 22.496 
*END

*D_NET *28 0.00174379
*CONN
*P tx_data_i[1] I
*I *1119:I I *D gf180mcu_fd_sc_mcu7t5v0__dlyb_1
*CAP
1 tx_data_i[1] 0.000871893
2 *1119:I 0.000871893
3 *1119:I *1121:I 0
*RES
1 tx_data_i[1] *1119:I 11.728 
*END

*D_NET *29 0.00175189
*CONN
*P tx_data_i[2] I
*I *1120:I I *D gf180mcu_fd_sc_mcu7t5v0__dlyb_1
*CAP
1 tx_data_i[2] 0.000645183
2 *1120:I 0.000645183
3 *1120:I *1121:I 0.000461521
*RES
1 tx_data_i[2] *1120:I 11.312 
*END

*D_NET *30 0.00236312
*CONN
*P tx_data_i[3] I
*I *1121:I I *D gf180mcu_fd_sc_mcu7t5v0__dlyb_1
*CAP
1 tx_data_i[3] 0.000939001
2 *1121:I 0.000939001
3 *1121:I *1038:I0 1.12327e-05
4 *1121:I *1038:S 1.23682e-05
5 *1119:I *1121:I 0
6 *1120:I *1121:I 0.000461521
*RES
1 tx_data_i[3] *1121:I 13.392 
*END

*D_NET *31 0.00532543
*CONN
*P tx_data_i[4] I
*I *1122:I I *D gf180mcu_fd_sc_mcu7t5v0__dlyb_1
*CAP
1 tx_data_i[4] 0.000674643
2 *1122:I 0.000674643
3 *1122:I *1042:A1 0.000579191
4 *1122:I *1123:I 0.000402858
5 *1122:I *1124:I 0.000857761
6 *1122:I *1126:I 0.00159738
7 *1118:I *1122:I 0.000538951
*RES
1 tx_data_i[4] *1122:I 25.2 
*END

*D_NET *32 0.00323465
*CONN
*P tx_data_i[5] I
*I *1123:I I *D gf180mcu_fd_sc_mcu7t5v0__dlyb_1
*CAP
1 tx_data_i[5] 0.00112356
2 *1123:I 0.00112356
3 *1123:I *1037:I1 2.38773e-05
4 *1123:I *1039:I0 0
5 *1123:I *1042:A1 5.85615e-05
6 *1123:I *1124:I 0.00024877
7 *1123:I *1126:I 0.000100163
8 *1118:I *1123:I 0.000153305
9 *1122:I *1123:I 0.000402858
*RES
1 tx_data_i[5] *1123:I 23.952 
*END

*D_NET *33 0.0040468
*CONN
*P tx_data_i[6] I
*I *1124:I I *D gf180mcu_fd_sc_mcu7t5v0__dlyb_1
*CAP
1 tx_data_i[6] 0.000798977
2 *1124:I 0.000798977
3 *1124:I *1126:I 0.000650001
4 *1118:I *1124:I 0.000692314
5 *1122:I *1124:I 0.000857761
6 *1123:I *1124:I 0.00024877
*RES
1 tx_data_i[6] *1124:I 24.992 
*END

*D_NET *34 0.00601077
*CONN
*P tx_data_i[7] I
*I *1126:I I *D gf180mcu_fd_sc_mcu7t5v0__dlyb_1
*CAP
1 tx_data_i[7] 0.00111884
2 *1126:I 0.00111884
3 *1126:I *1037:I1 1.85722e-05
4 *1126:I *1042:A1 0.000108108
5 *1126:I *1067:SETN 0.000654535
6 *1118:I *1126:I 0.00064432
7 *1122:I *1126:I 0.00159738
8 *1123:I *1126:I 0.000100163
9 *1124:I *1126:I 0.000650001
*RES
1 tx_data_i[7] *1126:I 27.072 
*END

*D_NET *35 0.00117688
*CONN
*P tx_o O
*I *1139:Z O *D gf180mcu_fd_sc_mcu7t5v0__dlyb_1
*CAP
1 tx_o 0.000588439
2 *1139:Z 0.000588439
*RES
1 *1139:Z tx_o 13.6521 
*END

*D_NET *36 0.00177067
*CONN
*P tx_ready_o O
*I *1140:Z O *D gf180mcu_fd_sc_mcu7t5v0__dlyb_1
*CAP
1 tx_ready_o 0.000391778
2 *1140:Z 0.000391778
3 tx_ready_o *213:10 0
4 *1113:I tx_ready_o 0.000203739
5 *1116:I tx_ready_o 0.000783372
*RES
1 *1140:Z tx_ready_o 14.0681 
*END

*D_NET *37 0.00120681
*CONN
*P tx_valid_i I
*I *1127:I I *D gf180mcu_fd_sc_mcu7t5v0__dlyb_1
*CAP
1 tx_valid_i 0.000603407
2 *1127:I 0.000603407
3 *1127:I *241:38 0
*RES
1 tx_valid_i *1127:I 13.8601 
*END

*D_NET *38 0.013984
*CONN
*I *1006:A1 I *D gf180mcu_fd_sc_mcu7t5v0__nand2_1
*I *1004:A1 I *D gf180mcu_fd_sc_mcu7t5v0__aoi22_1
*I *1002:A1 I *D gf180mcu_fd_sc_mcu7t5v0__nand2_1
*I *919:I I *D gf180mcu_fd_sc_mcu7t5v0__clkinv_1
*I *1001:A1 I *D gf180mcu_fd_sc_mcu7t5v0__nand2_1
*I *1007:A2 I *D gf180mcu_fd_sc_mcu7t5v0__nor3_1
*I *1026:A2 I *D gf180mcu_fd_sc_mcu7t5v0__nor4_1
*I *928:A2 I *D gf180mcu_fd_sc_mcu7t5v0__nor3_1
*I *1058:Q O *D gf180mcu_fd_sc_mcu7t5v0__dffrnq_1
*CAP
1 *1006:A1 0.000262072
2 *1004:A1 0
3 *1002:A1 0.000202858
4 *919:I 0.000123973
5 *1001:A1 0
6 *1007:A2 0.000295686
7 *1026:A2 0.000141623
8 *928:A2 0
9 *1058:Q 0
10 *38:75 0.000420605
11 *38:51 0.000177055
12 *38:38 0.000348768
13 *38:36 0.000369671
14 *38:25 0.000426259
15 *38:16 0.000522424
16 *38:6 0.000651784
17 *919:I *1001:A2 0.000113016
18 *919:I *1004:A2 1.53192e-05
19 *919:I *40:45 1.58238e-05
20 *919:I *74:14 8.14957e-05
21 *919:I *74:51 0
22 *1002:A1 *1002:A2 7.87395e-06
23 *1002:A1 *1004:B1 0.000202797
24 *1002:A1 *1004:B2 0
25 *1002:A1 *241:38 0.000296566
26 *1006:A1 *925:I 9.77992e-06
27 *1006:A1 *1006:A2 0.000147017
28 *1006:A1 *1012:A2 0.000122244
29 *1006:A1 *1019:A1 2.38656e-05
30 *1006:A1 *1058:D 0.000268824
31 *1006:A1 *1137:I 0.00014647
32 *1006:A1 *241:38 1.42358e-05
33 *1007:A2 *1001:A2 1.18091e-06
34 *1007:A2 *1003:A1 0.000357435
35 *1007:A2 *1003:A2 0.000881022
36 *1007:A2 *1007:A1 4.30651e-05
37 *1007:A2 *1007:A3 0.000346903
38 *1007:A2 *74:14 0.000339554
39 *1026:A2 *1026:A1 3.6012e-05
40 *1026:A2 *1026:A4 2.76963e-05
41 *1026:A2 *1056:B 0.00027292
42 *1026:A2 *1056:C 2.21341e-06
43 *38:16 *925:I 7.11399e-06
44 *38:16 *930:A1 0.000193782
45 *38:16 *1005:C 0.000491544
46 *38:16 *1058:D 0.000510573
47 *38:16 *1137:I 0.000361723
48 *38:16 *39:40 0.000177012
49 *38:16 *40:75 0.000228035
50 *38:16 *82:12 3.4596e-05
51 *38:16 *139:10 6.53324e-05
52 *38:25 *925:I 0
53 *38:25 *1056:A1 0.000247638
54 *38:25 *1056:A2 2.76367e-05
55 *38:25 *39:34 0.000715099
56 *38:25 *39:40 3.646e-05
57 *38:25 *79:8 0.000951689
58 *38:36 *927:A2 0.000147601
59 *38:36 *1056:A2 0.000156424
60 *38:36 *39:34 4.93913e-05
61 *38:51 *1001:A2 0.000265501
62 *38:51 *1003:A1 1.07369e-05
63 *38:51 *40:54 1.09841e-05
64 *38:51 *74:14 0.00038468
65 *38:75 *927:A2 2.17484e-05
66 *38:75 *1003:A1 0.000252255
67 *38:75 *1004:A2 0.000917494
68 *38:75 *40:65 2.82894e-06
*RES
1 *1058:Q *38:6 9 
2 *38:6 *38:16 14.304 
3 *38:16 *928:A2 9 
4 *38:16 *38:25 4.472 
5 *38:25 *1026:A2 10.144 
6 *38:25 *38:36 1.56 
7 *38:36 *38:38 4.5 
8 *38:38 *1007:A2 8.972 
9 *38:38 *38:51 1.144 
10 *38:51 *1001:A1 4.5 
11 *38:51 *919:I 14.748 
12 *38:36 *38:75 7.62 
13 *38:75 *1002:A1 7.204 
14 *38:75 *1004:A1 4.5 
15 *38:6 *1006:A1 11.6 
*END

*D_NET *39 0.0125515
*CONN
*I *1016:A3 I *D gf180mcu_fd_sc_mcu7t5v0__nand4_1
*I *1022:A2 I *D gf180mcu_fd_sc_mcu7t5v0__nand3_1
*I *920:I I *D gf180mcu_fd_sc_mcu7t5v0__clkinv_1
*I *927:A2 I *D gf180mcu_fd_sc_mcu7t5v0__nor2_1
*I *928:A3 I *D gf180mcu_fd_sc_mcu7t5v0__nor3_1
*I *930:A2 I *D gf180mcu_fd_sc_mcu7t5v0__aoi21_1
*I *1005:A2 I *D gf180mcu_fd_sc_mcu7t5v0__aoi211_1
*I *1059:Q O *D gf180mcu_fd_sc_mcu7t5v0__dffrnq_1
*CAP
1 *1016:A3 0
2 *1022:A2 0
3 *920:I 0
4 *927:A2 0.000133814
5 *928:A3 0
6 *930:A2 0.000523637
7 *1005:A2 0
8 *1059:Q 0.000510734
9 *39:40 0.000992723
10 *39:34 0.000639252
11 *39:32 0.000703133
12 *39:26 0.000605489
13 *39:20 0.000503375
14 *39:12 0.000807773
15 *927:A2 *40:65 8.64348e-05
16 *927:A2 *40:67 7.4087e-05
17 *930:A2 *930:A1 6.08645e-05
18 *930:A2 *1089:RN 0.000107832
19 *930:A2 *40:75 4.67771e-06
20 *930:A2 *83:12 0.000328552
21 *930:A2 *241:59 4.4504e-06
22 *39:12 *921:I 5.19755e-05
23 *39:12 *1014:A1 6.18411e-06
24 *39:12 *1014:A2 0.000267863
25 *39:12 *1014:A3 0.000114515
26 *39:12 *1014:A4 2.24654e-05
27 *39:12 *1016:A4 0.000404119
28 *39:12 *1022:A3 0.000272209
29 *39:12 *1024:B 1.41642e-05
30 *39:12 *40:14 6.41811e-05
31 *39:12 *74:51 2.14739e-05
32 *39:12 *178:38 5.96514e-05
33 *39:20 *1016:A4 1.12327e-05
34 *39:20 *1022:A3 0.00111763
35 *39:20 *74:51 0.000281563
36 *39:20 *178:25 5.89482e-05
37 *39:20 *226:14 0
38 *39:20 *241:38 0.00033722
39 *39:26 *1020:A1 0.000269264
40 *39:26 *1022:A1 3.59901e-05
41 *39:26 *74:14 3.3698e-05
42 *39:32 *1026:A4 1.36398e-06
43 *39:32 *1056:A2 4.91818e-05
44 *39:32 *1056:B 0.000185295
45 *39:32 *1056:C 0.000185295
46 *39:32 *74:14 0.000121828
47 *39:34 *1056:B 0.000339262
48 *39:34 *40:67 1.23478e-05
49 *39:34 *40:69 0.000545021
50 *39:40 *925:I 0
51 *39:40 *40:69 0.000132539
52 *39:40 *40:75 0.000300848
53 *39:40 *195:8 0
54 *38:16 *39:40 0.000177012
55 *38:25 *39:34 0.000715099
56 *38:25 *39:40 3.646e-05
57 *38:36 *927:A2 0.000147601
58 *38:36 *39:34 4.93913e-05
59 *38:75 *927:A2 2.17484e-05
*RES
1 *1059:Q *39:12 9.908 
2 *39:12 *39:20 13.368 
3 *39:20 *39:26 2.184 
4 *39:26 *39:32 8.036 
5 *39:32 *39:34 4.68 
6 *39:34 *39:40 8.868 
7 *39:40 *1005:A2 4.5 
8 *39:40 *930:A2 8.972 
9 *39:34 *928:A3 9 
10 *39:32 *927:A2 10.352 
11 *39:26 *920:I 4.5 
12 *39:20 *1022:A2 4.5 
13 *39:12 *1016:A3 4.5 
*END

*D_NET *40 0.0198786
*CONN
*I *1014:A1 I *D gf180mcu_fd_sc_mcu7t5v0__nand4_1
*I *1007:A1 I *D gf180mcu_fd_sc_mcu7t5v0__nor3_1
*I *1026:A1 I *D gf180mcu_fd_sc_mcu7t5v0__nor4_1
*I *928:A1 I *D gf180mcu_fd_sc_mcu7t5v0__nor3_1
*I *930:A1 I *D gf180mcu_fd_sc_mcu7t5v0__aoi21_1
*I *1005:A1 I *D gf180mcu_fd_sc_mcu7t5v0__aoi211_1
*I *1003:C I *D gf180mcu_fd_sc_mcu7t5v0__aoi211_1
*I *927:A1 I *D gf180mcu_fd_sc_mcu7t5v0__nor2_1
*I *918:I I *D gf180mcu_fd_sc_mcu7t5v0__clkinv_1
*I *1060:Q O *D gf180mcu_fd_sc_mcu7t5v0__dffrnq_1
*CAP
1 *1014:A1 3.09349e-05
2 *1007:A1 0.000166066
3 *1026:A1 2.52241e-05
4 *928:A1 8.73879e-05
5 *930:A1 0.00038917
6 *1005:A1 0
7 *1003:C 4.46365e-05
8 *927:A1 0
9 *918:I 0.00031978
10 *1060:Q 0.000592619
11 *40:75 0.000752174
12 *40:69 0.000957212
13 *40:67 0.000617891
14 *40:65 0.000411504
15 *40:54 0.000352702
16 *40:45 0.00163429
17 *40:16 0.00180559
18 *40:14 0.000623554
19 *918:I *1021:A1 6.40114e-06
20 *918:I *1060:RN 0
21 *918:I *148:14 5.82251e-05
22 *918:I *177:8 0.000447626
23 *918:I *177:21 0.000583405
24 *928:A1 *1012:A1 4.62069e-05
25 *928:A1 *1137:I 3.42651e-05
26 *928:A1 *82:12 0.000186464
27 *930:A1 *930:B 0.000527078
28 *930:A1 *1005:C 3.97877e-05
29 *930:A1 *1058:D 4.94991e-05
30 *930:A1 *1058:RN 2.63994e-05
31 *930:A1 *83:12 5.91309e-05
32 *930:A1 *241:44 0.000318754
33 *1003:C *1003:A1 1.56624e-05
34 *1003:C *1004:B2 0.000104542
35 *1003:C *1007:A3 0.000194511
36 *1007:A1 *1003:A2 0.00034255
37 *1007:A1 *1011:B 3.3698e-05
38 *1007:A1 *1057:B 0.00118379
39 *1007:A1 *74:14 0.000106908
40 *1014:A1 *178:38 6.18411e-06
41 *1026:A1 *1056:C 0.000106908
42 *40:14 *921:I 0
43 *40:14 *1024:B 0.000194522
44 *40:14 *1060:D 0
45 *40:14 *1060:RN 0.000447112
46 *40:14 *213:10 9.09864e-05
47 *40:45 *955:A1 0.000900192
48 *40:45 *1001:A2 4.41346e-05
49 *40:45 *1003:A1 0.000138366
50 *40:45 *1004:A2 0.000416371
51 *40:45 *1021:A1 2.7332e-05
52 *40:45 *1060:RN 0
53 *40:45 *1138:I 7.86954e-06
54 *40:45 *1139:I 3.73758e-05
55 *40:45 *74:51 0.001025
56 *40:45 *178:25 2.63349e-05
57 *40:45 *213:10 0
58 *40:45 *241:38 0
59 *40:54 *1003:A1 0.000285661
60 *40:54 *1004:B2 0.00010882
61 *40:54 *178:25 0
62 *40:65 *1003:A1 2.18955e-05
63 *40:65 *1026:A3 9.37361e-06
64 *40:65 *1072:RN 0
65 *40:65 *74:29 0.000334711
66 *40:67 *1026:A3 4.11175e-05
67 *40:69 *1012:A1 0.000104752
68 *40:69 *1026:A3 0.000111373
69 *40:69 *1056:B 0.000345387
70 *40:69 *1072:D 0
71 *40:75 *82:12 5.34417e-05
72 *919:I *40:45 1.58238e-05
73 *927:A2 *40:65 8.64348e-05
74 *927:A2 *40:67 7.4087e-05
75 *930:A2 *930:A1 6.08645e-05
76 *930:A2 *40:75 4.67771e-06
77 *1007:A2 *1007:A1 4.30651e-05
78 *1026:A2 *1026:A1 3.6012e-05
79 *38:16 *930:A1 0.000193782
80 *38:16 *40:75 0.000228035
81 *38:51 *40:54 1.09841e-05
82 *38:75 *40:65 2.82894e-06
83 *39:12 *1014:A1 6.18411e-06
84 *39:12 *40:14 6.41811e-05
85 *39:34 *40:67 1.23478e-05
86 *39:34 *40:69 0.000545021
87 *39:40 *40:69 0.000132539
88 *39:40 *40:75 0.000300848
*RES
1 *1060:Q *40:14 18.804 
2 *40:14 *40:16 4.5 
3 *40:16 *918:I 12.224 
4 *40:16 *40:45 35.292 
5 *40:45 *927:A1 4.5 
6 *40:45 *40:54 1.664 
7 *40:54 *1003:C 5.228 
8 *40:54 *40:65 5.852 
9 *40:65 *40:67 0.728 
10 *40:67 *40:69 5.512 
11 *40:69 *40:75 7.828 
12 *40:75 *1005:A1 4.5 
13 *40:75 *930:A1 17.972 
14 *40:69 *928:A1 9.832 
15 *40:67 *1026:A1 9.312 
16 *40:65 *1007:A1 12.536 
17 *40:14 *1014:A1 4.812 
*END

*D_NET *41 0.000754782
*CONN
*I *1073:D I *D gf180mcu_fd_sc_mcu7t5v0__dffrnq_1
*I *957:ZN O *D gf180mcu_fd_sc_mcu7t5v0__nor2_1
*CAP
1 *1073:D 0.000159192
2 *957:ZN 0.000159192
3 *1073:D *957:A1 0.000436398
4 *1073:D *197:83 0
*RES
1 *957:ZN *1073:D 10.664 
*END

*D_NET *42 0.00145441
*CONN
*I *1083:D I *D gf180mcu_fd_sc_mcu7t5v0__dffrnq_1
*I *986:ZN O *D gf180mcu_fd_sc_mcu7t5v0__nor3_1
*CAP
1 *1083:D 9.44608e-05
2 *986:ZN 9.44608e-05
3 *1083:D *986:A2 8.44565e-06
4 *1083:D *180:10 0.000283521
5 *1083:D *180:12 0.000262946
6 *1083:D *180:16 0.000116466
7 *1083:D *199:48 0.000397047
8 *1083:D *199:52 0.000197059
*RES
1 *986:ZN *1083:D 19.872 
*END

*D_NET *43 0.00122305
*CONN
*I *1084:D I *D gf180mcu_fd_sc_mcu7t5v0__dffrnq_1
*I *990:ZN O *D gf180mcu_fd_sc_mcu7t5v0__nor3_1
*CAP
1 *1084:D 0.000552978
2 *990:ZN 0.000552978
3 *1084:D *979:A2 6.12333e-05
4 *1084:D *983:A3 4.79893e-05
5 *1084:D *1084:CLK 7.87395e-06
*RES
1 *990:ZN *1084:D 21.952 
*END

*D_NET *44 0.00140597
*CONN
*I *1085:D I *D gf180mcu_fd_sc_mcu7t5v0__dffrnq_1
*I *992:ZN O *D gf180mcu_fd_sc_mcu7t5v0__nor2_1
*CAP
1 *1085:D 0.000416504
2 *992:ZN 0.000416504
3 *1085:D *938:A1 0.000204909
4 *1085:D *951:A4 4.83913e-05
5 *1085:D *992:A2 0.0001172
6 *1085:D *231:23 0.000178541
7 *1085:D *236:12 2.39167e-05
*RES
1 *992:ZN *1085:D 13.16 
*END

*D_NET *45 0.00261083
*CONN
*I *1086:D I *D gf180mcu_fd_sc_mcu7t5v0__dffrnq_1
*I *995:ZN O *D gf180mcu_fd_sc_mcu7t5v0__nor3_1
*CAP
1 *1086:D 0.000483005
2 *995:ZN 0.000483005
3 *1086:D *931:A2 1.07369e-05
4 *1086:D *998:A1 1.23478e-05
5 *1086:D *998:A2 7.17651e-05
6 *1086:D *999:A1 9.52581e-05
7 *1086:D *999:A2 0.000112681
8 *1086:D *1000:A3 0.000139081
9 *1086:D *1086:RN 1.89124e-05
10 *1086:D *132:19 0.00108642
11 *1086:D *132:23 9.7618e-05
*RES
1 *995:ZN *1086:D 23.2 
*END

*D_NET *46 0.00104294
*CONN
*I *1087:D I *D gf180mcu_fd_sc_mcu7t5v0__dffrnq_1
*I *997:ZN O *D gf180mcu_fd_sc_mcu7t5v0__aoi21_1
*CAP
1 *1087:D 0.000244217
2 *997:ZN 0.000244217
3 *1087:D *936:A1 0
4 *1087:D *956:A2 0
5 *1087:D *997:A1 0.000190833
6 *1087:D *997:A2 0.000238516
7 *1087:D *1097:I 0.000125157
*RES
1 *997:ZN *1087:D 11.08 
*END

*D_NET *47 0.000959297
*CONN
*I *1088:D I *D gf180mcu_fd_sc_mcu7t5v0__dffrnq_1
*I *1000:ZN O *D gf180mcu_fd_sc_mcu7t5v0__nor3_1
*CAP
1 *1088:D 0.000147029
2 *1000:ZN 0.000147029
3 *1088:D *931:A2 9.52642e-05
4 *1088:D *1000:A3 0.000569975
*RES
1 *1000:ZN *1088:D 10.976 
*END

*D_NET *48 0.00203112
*CONN
*I *1074:D I *D gf180mcu_fd_sc_mcu7t5v0__dffrnq_1
*I *959:ZN O *D gf180mcu_fd_sc_mcu7t5v0__nor2_1
*CAP
1 *1074:D 0.000808426
2 *959:ZN 0.000808426
3 *1074:D *1074:CLK 0
4 *1074:D *196:52 0.000414267
*RES
1 *959:ZN *1074:D 25.28 
*END

*D_NET *49 0.000637309
*CONN
*I *1075:D I *D gf180mcu_fd_sc_mcu7t5v0__dffrnq_1
*I *962:ZN O *D gf180mcu_fd_sc_mcu7t5v0__nor3_1
*CAP
1 *1075:D 0.000106683
2 *962:ZN 0.000106683
3 *1075:D *109:8 4.67771e-06
4 *1075:D *188:23 0.000419265
*RES
1 *962:ZN *1075:D 10.144 
*END

*D_NET *50 0.00154481
*CONN
*I *1076:D I *D gf180mcu_fd_sc_mcu7t5v0__dffrnq_1
*I *966:ZN O *D gf180mcu_fd_sc_mcu7t5v0__nor3_1
*CAP
1 *1076:D 0.000718252
2 *966:ZN 0.000718252
3 *1076:D *966:A3 4.84332e-05
4 *1076:D *1073:CLK 5.98709e-05
5 *1076:D *1075:CLK 0
*RES
1 *966:ZN *1076:D 13.68 
*END

*D_NET *51 0.00092902
*CONN
*I *1077:D I *D gf180mcu_fd_sc_mcu7t5v0__dffrnq_1
*I *968:ZN O *D gf180mcu_fd_sc_mcu7t5v0__nor2_1
*CAP
1 *1077:D 0.000108718
2 *968:ZN 0.000108718
3 *1077:D *967:A2 6.91919e-05
4 *1077:D *968:A2 0.000304622
5 *1077:D *112:10 0.000337769
*RES
1 *968:ZN *1077:D 10.456 
*END

*D_NET *52 0.00250765
*CONN
*I *1078:D I *D gf180mcu_fd_sc_mcu7t5v0__dffrnq_1
*I *972:ZN O *D gf180mcu_fd_sc_mcu7t5v0__nor3_1
*CAP
1 *1078:D 0.000778425
2 *972:ZN 0.000778425
3 *1078:D *932:A1 0.000224121
4 *1078:D *933:A1 0
5 *1078:D *973:A1 9.01564e-05
6 *1078:D *1078:CLK 7.87395e-06
7 *1078:D *116:18 0.000488181
8 *1078:D *190:12 0.000140464
*RES
1 *972:ZN *1078:D 25.072 
*END

*D_NET *53 0.00285938
*CONN
*I *1079:D I *D gf180mcu_fd_sc_mcu7t5v0__dffrnq_1
*I *974:ZN O *D gf180mcu_fd_sc_mcu7t5v0__nor2_1
*CAP
1 *1079:D 0.000561328
2 *974:ZN 0.000561328
3 *1079:D *939:A1 1.8196e-05
4 *1079:D *949:A2 0
5 *1079:D *957:A2 4.49882e-05
6 *1079:D *1078:RN 8.34358e-05
7 *1079:D *179:14 0.00139558
8 *1079:D *238:105 0.000194522
9 *1125:I *1079:D 0
*RES
1 *974:ZN *1079:D 23.616 
*END

*D_NET *54 0.000543448
*CONN
*I *1080:D I *D gf180mcu_fd_sc_mcu7t5v0__dffrnq_1
*I *978:ZN O *D gf180mcu_fd_sc_mcu7t5v0__nor3_1
*CAP
1 *1080:D 0.000157695
2 *978:ZN 0.000157695
3 *1080:D *948:A2 0.000181002
4 *1080:D *978:A3 4.70558e-05
*RES
1 *978:ZN *1080:D 10.352 
*END

*D_NET *55 0.00051769
*CONN
*I *1081:D I *D gf180mcu_fd_sc_mcu7t5v0__dffrnq_1
*I *980:ZN O *D gf180mcu_fd_sc_mcu7t5v0__nor2_1
*CAP
1 *1081:D 0.000258845
2 *980:ZN 0.000258845
3 *1081:D *1081:CLK 0
*RES
1 *980:ZN *1081:D 10.872 
*END

*D_NET *56 0.000438211
*CONN
*I *1082:D I *D gf180mcu_fd_sc_mcu7t5v0__dffrnq_1
*I *983:ZN O *D gf180mcu_fd_sc_mcu7t5v0__nor3_1
*CAP
1 *1082:D 0.00017298
2 *983:ZN 0.00017298
3 *1082:D *980:A1 0
4 *1082:D *1081:CLK 2.83652e-05
5 *1082:D *199:61 6.38863e-05
6 *1082:D *230:104 0
*RES
1 *983:ZN *1082:D 10.456 
*END

*D_NET *57 0.000432836
*CONN
*I *1089:D I *D gf180mcu_fd_sc_mcu7t5v0__dffrnq_1
*I *954:Z O *D gf180mcu_fd_sc_mcu7t5v0__and2_1
*CAP
1 *1089:D 0.000216418
2 *954:Z 0.000216418
3 *1089:D *1074:CLK 0
4 *1089:D *200:16 0
*RES
1 *954:Z *1089:D 10.456 
*END

*D_NET *58 0.00618852
*CONN
*I *1010:B I *D gf180mcu_fd_sc_mcu7t5v0__oai21_1
*I *924:I I *D gf180mcu_fd_sc_mcu7t5v0__clkinv_1
*I *1071:Q O *D gf180mcu_fd_sc_mcu7t5v0__dffrnq_1
*CAP
1 *1010:B 0.000427807
2 *924:I 0.000304486
3 *1071:Q 0.000605352
4 *58:10 0.00133764
5 *924:I *1053:A1 1.98069e-05
6 *924:I *239:19 9.27912e-06
7 *924:I *239:21 5.56167e-06
8 *924:I *239:23 3.70909e-06
9 *1010:B *1008:A1 0.000237629
10 *1010:B *1008:A2 0.00106072
11 *1010:B *1072:RN 7.17602e-05
12 *1010:B *239:76 7.56248e-06
13 *1010:B *241:8 3.4596e-05
14 *1010:B *241:38 0.00111937
15 *1010:B *249:8 0.000184188
16 *1010:B *249:21 0.00031371
17 *58:10 *1071:RN 0
18 *58:10 *1100:I 5.94665e-05
19 *58:10 *1102:I 0
20 *58:10 *239:19 6.65172e-05
21 *58:10 *241:8 0.000208037
22 *58:10 *241:38 1.07369e-05
23 *1117:I *58:10 0.000100568
*RES
1 *1071:Q *58:10 13.576 
2 *58:10 *924:I 10.768 
3 *58:10 *1010:B 16.904 
*END

*D_NET *59 0.00496381
*CONN
*I *1058:D I *D gf180mcu_fd_sc_mcu7t5v0__dffrnq_1
*I *1019:ZN O *D gf180mcu_fd_sc_mcu7t5v0__aoi21_1
*CAP
1 *1058:D 0.000659489
2 *1019:ZN 0.000659489
3 *1058:D *925:I 0
4 *1058:D *930:B 0.000289333
5 *1058:D *1005:C 0
6 *1058:D *1006:A2 0.00014353
7 *1058:D *1012:B 2.14739e-05
8 *1058:D *1019:A1 5.5133e-05
9 *1058:D *1058:RN 0
10 *1058:D *1101:I 0.000179194
11 *1058:D *1137:I 3.4596e-05
12 *1058:D *83:12 0.000853491
13 *1058:D *139:10 0.000441747
14 *1058:D *146:18 0.000771903
15 *1058:D *195:8 0
16 *1058:D *237:14 0
17 *1058:D *241:44 2.55295e-05
18 *930:A1 *1058:D 4.94991e-05
19 *1006:A1 *1058:D 0.000268824
20 *38:16 *1058:D 0.000510573
*RES
1 *1019:ZN *1058:D 27.152 
*END

*D_NET *60 0.00152279
*CONN
*I *1059:D I *D gf180mcu_fd_sc_mcu7t5v0__dffrnq_1
*I *1021:ZN O *D gf180mcu_fd_sc_mcu7t5v0__aoi211_1
*CAP
1 *1059:D 0.000532655
2 *1021:ZN 0.000532655
3 *1059:D *1024:A2 0
4 *1059:D *1060:CLK 0.000452354
5 *1059:D *200:86 5.12872e-06
*RES
1 *1021:ZN *1059:D 22.056 
*END

*D_NET *61 0.00159906
*CONN
*I *1060:D I *D gf180mcu_fd_sc_mcu7t5v0__dffrnq_1
*I *1024:ZN O *D gf180mcu_fd_sc_mcu7t5v0__aoi211_1
*CAP
1 *1060:D 0.000700901
2 *1024:ZN 0.000700901
3 *1060:D *1024:A2 5.12872e-06
4 *1060:D *1024:B 9.9247e-06
5 *1060:D *1024:C 0.000182208
6 *40:14 *1060:D 0
*RES
1 *1024:ZN *1060:D 23.2 
*END

*D_NET *62 0.0016521
*CONN
*I *1061:D I *D gf180mcu_fd_sc_mcu7t5v0__dffsnq_1
*I *1030:Z O *D gf180mcu_fd_sc_mcu7t5v0__mux2_2
*CAP
1 *1061:D 0.000659159
2 *1030:Z 0.000659159
3 *1061:D *1074:CLK 0
4 *1061:D *1091:I 0
5 *1061:D *1092:I 3.82428e-05
6 *1061:D *196:52 0
7 *1061:D *196:68 0
8 *1061:D *198:30 0.000295535
*RES
1 *1030:Z *1061:D 14.2 
*END

*D_NET *63 0.000918066
*CONN
*I *1062:D I *D gf180mcu_fd_sc_mcu7t5v0__dffsnq_1
*I *1032:Z O *D gf180mcu_fd_sc_mcu7t5v0__mux2_2
*CAP
1 *1062:D 0.000459033
2 *1032:Z 0.000459033
3 *1062:D *1029:S 0
4 *1062:D *229:31 0
*RES
1 *1032:Z *1062:D 21.536 
*END

*D_NET *64 0.000740499
*CONN
*I *1063:D I *D gf180mcu_fd_sc_mcu7t5v0__dffsnq_1
*I *1034:Z O *D gf180mcu_fd_sc_mcu7t5v0__mux2_2
*CAP
1 *1063:D 0.000290491
2 *1034:Z 0.000290491
3 *1063:D *1034:I1 0.000159517
*RES
1 *1034:Z *1063:D 11.496 
*END

*D_NET *65 0.000395916
*CONN
*I *1064:D I *D gf180mcu_fd_sc_mcu7t5v0__dffsnq_1
*I *1036:Z O *D gf180mcu_fd_sc_mcu7t5v0__mux2_2
*CAP
1 *1064:D 0.000157619
2 *1036:Z 0.000157619
3 *1064:D *1036:I1 4.91818e-05
4 *1064:D *1064:CLK 3.14958e-05
*RES
1 *1036:Z *1064:D 10.144 
*END

*D_NET *66 0.00130447
*CONN
*I *1065:D I *D gf180mcu_fd_sc_mcu7t5v0__dffsnq_1
*I *1038:Z O *D gf180mcu_fd_sc_mcu7t5v0__mux2_2
*CAP
1 *1065:D 0.000623901
2 *1038:Z 0.000623901
3 *1065:D *1033:I0 4.87987e-05
4 *1065:D *1036:I1 0
5 *1065:D *1065:CLK 7.87395e-06
*RES
1 *1038:Z *1065:D 22.368 
*END

*D_NET *67 0.0015099
*CONN
*I *1066:D I *D gf180mcu_fd_sc_mcu7t5v0__dffsnq_1
*I *1040:Z O *D gf180mcu_fd_sc_mcu7t5v0__mux2_2
*CAP
1 *1066:D 0.000409509
2 *1040:Z 0.000409509
3 *1066:D *1043:A2 0.000404285
4 *1066:D *1067:CLK 4.67771e-06
5 *1066:D *1099:I 3.71745e-06
6 *1066:D *198:36 8.35478e-05
7 *1066:D *229:14 0.000141195
8 *1066:D *235:10 5.34599e-05
*RES
1 *1040:Z *1066:D 21.328 
*END

*D_NET *68 0.000382352
*CONN
*I *1067:D I *D gf180mcu_fd_sc_mcu7t5v0__dffsnq_1
*I *1044:Z O *D gf180mcu_fd_sc_mcu7t5v0__mux2_2
*CAP
1 *1067:D 0.000132176
2 *1044:Z 0.000132176
3 *1067:D *1029:I0 9.41125e-05
4 *1067:D *1067:CLK 2.38865e-05
*RES
1 *1044:Z *1067:D 10.144 
*END

*D_NET *69 0.00148141
*CONN
*I *1068:D I *D gf180mcu_fd_sc_mcu7t5v0__dffsnq_1
*I *1046:ZN O *D gf180mcu_fd_sc_mcu7t5v0__aoi21_1
*CAP
1 *1068:D 0.000306435
2 *1046:ZN 0.000306435
3 *1068:D *1029:I0 0.000109634
4 *1068:D *1043:A1 0.000689375
5 *1068:D *156:16 0
6 *1068:D *156:26 0
7 *1068:D *198:30 7.87395e-06
8 *1068:D *198:36 6.16518e-05
*RES
1 *1046:ZN *1068:D 21.328 
*END

*D_NET *70 0.000663154
*CONN
*I *1069:D I *D gf180mcu_fd_sc_mcu7t5v0__dffrnq_1
*I *1048:ZN O *D gf180mcu_fd_sc_mcu7t5v0__clkinv_1
*CAP
1 *1069:D 0.000331577
2 *1048:ZN 0.000331577
*RES
1 *1048:ZN *1069:D 11.496 
*END

*D_NET *71 0.00141646
*CONN
*I *1070:D I *D gf180mcu_fd_sc_mcu7t5v0__dffrnq_1
*I *1052:ZN O *D gf180mcu_fd_sc_mcu7t5v0__aoi21_1
*CAP
1 *1070:D 0.000643475
2 *1052:ZN 0.000643475
3 *1070:D *1049:A2 0
4 *1070:D *1054:B2 0
5 *1070:D *1070:CLK 4.67771e-06
6 *1070:D *1071:D 0.000124835
7 *1070:D *232:12 0
*RES
1 *1052:ZN *1070:D 22.576 
*END

*D_NET *72 0.0020544
*CONN
*I *1071:D I *D gf180mcu_fd_sc_mcu7t5v0__dffrnq_1
*I *1054:ZN O *D gf180mcu_fd_sc_mcu7t5v0__oai22_1
*CAP
1 *1071:D 0.000905292
2 *1054:ZN 0.000905292
3 *1071:D *1054:A1 2.8052e-05
4 *1071:D *1070:CLK 5.37643e-05
5 *1071:D *239:23 3.71683e-05
6 *1070:D *1071:D 0.000124835
*RES
1 *1054:ZN *1071:D 24.448 
*END

*D_NET *73 0.00175118
*CONN
*I *1072:D I *D gf180mcu_fd_sc_mcu7t5v0__dffrnq_1
*I *1057:ZN O *D gf180mcu_fd_sc_mcu7t5v0__oai21_1
*CAP
1 *1072:D 0.000353806
2 *1057:ZN 0.000353806
3 *1072:D *1056:B 0.000419265
4 *1072:D *1057:A1 0.000419276
5 *1072:D *1057:A2 0.000113027
6 *1072:D *157:6 1.26329e-05
7 *1072:D *225:10 7.93632e-05
8 *40:69 *1072:D 0
*RES
1 *1057:ZN *1072:D 22.16 
*END

*D_NET *74 0.0114189
*CONN
*I *1014:A3 I *D gf180mcu_fd_sc_mcu7t5v0__nand4_1
*I *1021:A1 I *D gf180mcu_fd_sc_mcu7t5v0__aoi211_1
*I *1003:B I *D gf180mcu_fd_sc_mcu7t5v0__aoi211_1
*I *1007:A3 I *D gf180mcu_fd_sc_mcu7t5v0__nor3_1
*I *1026:A3 I *D gf180mcu_fd_sc_mcu7t5v0__nor4_1
*I *920:ZN O *D gf180mcu_fd_sc_mcu7t5v0__clkinv_1
*CAP
1 *1014:A3 8.04911e-05
2 *1021:A1 0.000517279
3 *1003:B 0
4 *1007:A3 0.00029862
5 *1026:A3 0.0003173
6 *920:ZN 5.7099e-05
7 *74:51 0.00128189
8 *74:29 0.000390291
9 *74:14 0.000652731
10 *74:8 0.000984982
11 *1007:A3 *1002:A2 6.43966e-06
12 *1007:A3 *1003:A1 0.000194511
13 *1007:A3 *1003:A2 3.18325e-05
14 *1007:A3 *1004:B2 4.49307e-05
15 *1007:A3 *1072:RN 7.98863e-05
16 *1014:A3 *1014:A4 0.00033778
17 *1021:A1 *1015:A2 0.000188231
18 *1021:A1 *75:15 0.000170008
19 *1021:A1 *75:19 0.000153155
20 *1021:A1 *148:14 8.07883e-05
21 *1021:A1 *177:8 6.97265e-05
22 *1021:A1 *177:21 2.56152e-05
23 *1021:A1 *213:10 0.000107648
24 *1026:A3 *1057:A1 0
25 *1026:A3 *1072:RN 7.11788e-06
26 *1026:A3 *247:8 0
27 *74:8 *241:38 3.71367e-05
28 *74:14 *1003:A1 1.36858e-05
29 *74:14 *1020:A1 0.000419265
30 *74:14 *1056:A2 0.000256285
31 *74:14 *1056:C 1.26329e-05
32 *74:14 *1057:B 7.52298e-05
33 *74:29 *1072:RN 0
34 *74:51 *955:A1 2.22593e-05
35 *74:51 *1014:A4 0.000182208
36 *74:51 *1016:A4 0.000610711
37 *74:51 *1140:I 5.35362e-06
38 *74:51 *178:25 3.46946e-05
39 *74:51 *241:38 8.86232e-05
40 *918:I *1021:A1 6.40114e-06
41 *919:I *74:14 8.14957e-05
42 *919:I *74:51 0
43 *1003:C *1007:A3 0.000194511
44 *1007:A1 *74:14 0.000106908
45 *1007:A2 *1007:A3 0.000346903
46 *1007:A2 *74:14 0.000339554
47 *38:51 *74:14 0.00038468
48 *39:12 *1014:A3 0.000114515
49 *39:12 *74:51 2.14739e-05
50 *39:20 *74:51 0.000281563
51 *39:26 *74:14 3.3698e-05
52 *39:32 *74:14 0.000121828
53 *40:45 *1021:A1 2.7332e-05
54 *40:45 *74:51 0.001025
55 *40:65 *1026:A3 9.37361e-06
56 *40:65 *74:29 0.000334711
57 *40:67 *1026:A3 4.11175e-05
58 *40:69 *1026:A3 0.000111373
*RES
1 *920:ZN *74:8 9.52 
2 *74:8 *74:14 13.056 
3 *74:14 *1026:A3 11.288 
4 *74:14 *74:29 5.436 
5 *74:29 *1007:A3 7.932 
6 *74:29 *1003:B 4.5 
7 *74:8 *74:51 12.612 
8 *74:51 *1021:A1 17.972 
9 *74:51 *1014:A3 5.748 
*END

*D_NET *75 0.00630086
*CONN
*I *1024:C I *D gf180mcu_fd_sc_mcu7t5v0__aoi211_1
*I *1021:C I *D gf180mcu_fd_sc_mcu7t5v0__aoi211_1
*I *1019:B I *D gf180mcu_fd_sc_mcu7t5v0__aoi21_1
*I *955:A1 I *D gf180mcu_fd_sc_mcu7t5v0__nor2_1
*I *921:ZN O *D gf180mcu_fd_sc_mcu7t5v0__clkinv_1
*CAP
1 *1024:C 0.000229667
2 *1021:C 5.31934e-05
3 *1019:B 0.000398871
4 *955:A1 0.000106897
5 *921:ZN 0
6 *75:19 0.000810304
7 *75:15 0.00108515
8 *75:4 0.000604142
9 *955:A1 *1138:I 1.23682e-05
10 *955:A1 *1140:I 0.000345736
11 *1019:B *1013:A2 0.000134833
12 *1019:B *1020:A4 0
13 *1019:B *1021:B 1.02007e-05
14 *1019:B *146:27 2.73715e-06
15 *1019:B *147:8 0
16 *1021:C *1021:B 2.81522e-06
17 *1021:C *147:8 2.25463e-05
18 *1024:C *1017:A2 0.00026679
19 *1024:C *1023:A2 0.000194522
20 *1024:C *1024:A2 8.27233e-06
21 *1024:C *1024:B 4.12444e-06
22 *1024:C *147:8 2.39156e-06
23 *1024:C *148:14 0.000246442
24 *1024:C *177:21 8.1598e-06
25 *75:15 *1014:A4 0.000106582
26 *75:15 *1015:A2 7.05624e-05
27 *75:15 *1020:A1 4.04794e-05
28 *75:15 *145:14 1.21767e-05
29 *75:15 *213:10 3.658e-05
30 *75:19 *145:14 3.20057e-06
31 *75:19 *145:16 8.95428e-06
32 *75:19 *145:20 4.43387e-05
33 *1021:A1 *75:15 0.000170008
34 *1021:A1 *75:19 0.000153155
35 *1060:D *1024:C 0.000182208
36 *40:45 *955:A1 0.000900192
37 *74:51 *955:A1 2.22593e-05
*RES
1 *921:ZN *75:4 4.5 
2 *75:4 *955:A1 7.1 
3 *75:4 *75:15 7.724 
4 *75:15 *75:19 6.892 
5 *75:19 *1019:B 7.828 
6 *75:19 *1021:C 5.02 
7 *75:15 *1024:C 11.392 
*END

*D_NET *76 0.00491969
*CONN
*I *1010:A2 I *D gf180mcu_fd_sc_mcu7t5v0__oai21_1
*I *1009:A2 I *D gf180mcu_fd_sc_mcu7t5v0__and2_1
*I *1050:B2 I *D gf180mcu_fd_sc_mcu7t5v0__oai32_1
*I *1047:S I *D gf180mcu_fd_sc_mcu7t5v0__mux2_2
*I *1049:A1 I *D gf180mcu_fd_sc_mcu7t5v0__or2_1
*I *922:ZN O *D gf180mcu_fd_sc_mcu7t5v0__clkinv_1
*CAP
1 *1010:A2 6.47535e-05
2 *1009:A2 6.37819e-05
3 *1050:B2 2.44118e-05
4 *1047:S 5.43511e-05
5 *1049:A1 8.85765e-05
6 *922:ZN 0.000108254
7 *76:45 0.000218663
8 *76:20 0.000335854
9 *76:16 0.000496263
10 *76:10 0.000477306
11 *1009:A2 *1050:A2 5.61634e-05
12 *1010:A2 *1009:A1 0.000403896
13 *1010:A2 *1050:A3 0.000557671
14 *1010:A2 *143:15 7.18755e-06
15 *1047:S *1051:A1 0
16 *1047:S *1052:A1 0
17 *1047:S *232:10 0.000100383
18 *1047:S *233:14 1.85523e-05
19 *1049:A1 *1052:A1 0
20 *1049:A1 *232:10 0.000102981
21 *1050:B2 *1051:A1 9.76253e-05
22 *1050:B2 *1051:A2 9.76253e-05
23 *76:10 *922:I 7.82526e-05
24 *76:10 *77:12 3.85294e-05
25 *76:16 *1050:A1 0
26 *76:16 *1050:A2 2.73715e-06
27 *76:16 *1050:A3 3.4596e-05
28 *76:16 *1051:A2 1.02299e-06
29 *76:16 *1052:A1 0.000185538
30 *76:16 *77:12 0.000393477
31 *76:16 *239:76 0.00013995
32 *76:20 *1047:I0 0.000146145
33 *76:20 *1049:A2 4.41041e-05
34 *76:20 *1051:A1 4.67734e-05
35 *76:20 *1052:A1 0.000179413
36 *76:45 *1050:A2 7.11798e-06
37 *76:45 *1050:A3 0.000247057
38 *76:45 *143:15 6.8199e-07
*RES
1 *922:ZN *76:10 14.436 
2 *76:10 *76:16 7.204 
3 *76:16 *76:20 6.476 
4 *76:20 *1049:A1 5.228 
5 *76:20 *1047:S 5.228 
6 *76:16 *1050:B2 9.312 
7 *76:10 *76:45 0.728 
8 *76:45 *1009:A2 5.228 
9 *76:45 *1010:A2 6.06 
*END

*D_NET *77 0.0030945
*CONN
*I *1050:B1 I *D gf180mcu_fd_sc_mcu7t5v0__oai32_1
*I *1052:A1 I *D gf180mcu_fd_sc_mcu7t5v0__aoi21_1
*I *923:ZN O *D gf180mcu_fd_sc_mcu7t5v0__clkinv_1
*CAP
1 *1050:B1 0
2 *1052:A1 0.000354938
3 *923:ZN 0.000266537
4 *77:12 0.000621475
5 *1052:A1 *922:I 0
6 *1052:A1 *1051:A1 0.000516281
7 *1052:A1 *1052:B 6.85302e-05
8 *1052:A1 *171:10 0.000151399
9 *1052:A1 *173:8 1.29379e-05
10 *1052:A1 *232:10 0
11 *77:12 *922:I 0
12 *77:12 *1008:A2 4.91701e-05
13 *77:12 *239:76 0.000256274
14 *1047:S *1052:A1 0
15 *1049:A1 *1052:A1 0
16 *76:10 *77:12 3.85294e-05
17 *76:16 *1052:A1 0.000185538
18 *76:16 *77:12 0.000393477
19 *76:20 *1052:A1 0.000179413
*RES
1 *923:ZN *77:12 11.808 
2 *77:12 *1052:A1 12.536 
3 *77:12 *1050:B1 9 
*END

*D_NET *78 0.000865566
*CONN
*I *1053:A2 I *D gf180mcu_fd_sc_mcu7t5v0__nand2_1
*I *1054:A1 I *D gf180mcu_fd_sc_mcu7t5v0__oai22_1
*I *924:ZN O *D gf180mcu_fd_sc_mcu7t5v0__clkinv_1
*CAP
1 *1053:A2 0.000110124
2 *1054:A1 0.000212801
3 *924:ZN 0
4 *78:4 0.000322925
5 *1053:A2 *1054:A2 0.000125251
6 *1053:A2 *239:76 3.83248e-05
7 *1054:A1 *1053:A1 2.80885e-05
8 *1071:D *1054:A1 2.8052e-05
*RES
1 *924:ZN *78:4 4.5 
2 *78:4 *1054:A1 14.852 
3 *78:4 *1053:A2 5.436 
*END

*D_NET *79 0.00257539
*CONN
*I *1056:A1 I *D gf180mcu_fd_sc_mcu7t5v0__oai211_1
*I *1026:A4 I *D gf180mcu_fd_sc_mcu7t5v0__nor4_1
*I *925:ZN O *D gf180mcu_fd_sc_mcu7t5v0__clkinv_1
*CAP
1 *1056:A1 2.06922e-05
2 *1026:A4 0.000237107
3 *925:ZN 0.000141849
4 *79:8 0.000399648
5 *1026:A4 *1056:B 0.000338898
6 *1056:A1 *1056:A2 0.000208806
7 *1026:A2 *1026:A4 2.76963e-05
8 *38:25 *1056:A1 0.000247638
9 *38:25 *79:8 0.000951689
10 *39:32 *1026:A4 1.36398e-06
*RES
1 *925:ZN *79:8 11.392 
2 *79:8 *1026:A4 10.768 
3 *79:8 *1056:A1 9.728 
*END

*D_NET *80 0.00209005
*CONN
*I *1012:A1 I *D gf180mcu_fd_sc_mcu7t5v0__aoi21_1
*I *926:ZN O *D gf180mcu_fd_sc_mcu7t5v0__clkinv_1
*CAP
1 *1012:A1 0.000730003
2 *926:ZN 0.000730003
3 *1012:A1 *925:I 0.000169099
4 *1012:A1 *1137:I 6.03575e-05
5 *1012:A1 *82:12 0.000249633
6 *928:A1 *1012:A1 4.62069e-05
7 *40:69 *1012:A1 0.000104752
*RES
1 *926:ZN *1012:A1 14.408 
*END

*D_NET *81 0.00236517
*CONN
*I *1004:A2 I *D gf180mcu_fd_sc_mcu7t5v0__aoi22_1
*I *1001:A2 I *D gf180mcu_fd_sc_mcu7t5v0__nand2_1
*I *927:ZN O *D gf180mcu_fd_sc_mcu7t5v0__nor2_1
*CAP
1 *1004:A2 0.000173194
2 *1001:A2 0.000107694
3 *927:ZN 0
4 *81:4 0.000280888
5 *1001:A2 *1003:A1 3.03748e-05
6 *1001:A2 *178:25 0
7 *919:I *1001:A2 0.000113016
8 *919:I *1004:A2 1.53192e-05
9 *1007:A2 *1001:A2 1.18091e-06
10 *38:51 *1001:A2 0.000265501
11 *38:75 *1004:A2 0.000917494
12 *40:45 *1001:A2 4.41346e-05
13 *40:45 *1004:A2 0.000416371
*RES
1 *927:ZN *81:4 4.5 
2 *81:4 *1001:A2 5.748 
3 *81:4 *1004:A2 16.1 
*END

*D_NET *82 0.00901412
*CONN
*I *1137:I I *D gf180mcu_fd_sc_mcu7t5v0__clkbuf_1
*I *1041:A2 I *D gf180mcu_fd_sc_mcu7t5v0__aoi21_1
*I *1025:A2 I *D gf180mcu_fd_sc_mcu7t5v0__nand2_1
*I *928:ZN O *D gf180mcu_fd_sc_mcu7t5v0__nor3_1
*CAP
1 *1137:I 0.000361545
2 *1041:A2 3.75459e-05
3 *1025:A2 0.000118272
4 *928:ZN 0
5 *82:12 0.00110584
6 *82:4 0.00131156
7 *1025:A2 *1025:A1 0.000262946
8 *1025:A2 *1061:SETN 3.22108e-05
9 *1025:A2 *198:17 2.83881e-05
10 *1041:A2 *1030:I0 8.44565e-06
11 *1041:A2 *1061:SETN 0.000103788
12 *1137:I *925:I 6.33007e-05
13 *1137:I *1012:B 0.000229573
14 *1137:I *139:10 0.000579191
15 *1137:I *146:18 3.08293e-05
16 *82:12 *926:I 0.000387745
17 *82:12 *1025:A1 0.000247638
18 *82:12 *1072:CLK 7.83565e-05
19 *82:12 *198:15 4.13954e-05
20 *82:12 *198:17 0.000142282
21 *82:12 *225:16 0.00268172
22 *928:A1 *1137:I 3.42651e-05
23 *928:A1 *82:12 0.000186464
24 *1006:A1 *1137:I 0.00014647
25 *1012:A1 *1137:I 6.03575e-05
26 *1012:A1 *82:12 0.000249633
27 *1058:D *1137:I 3.4596e-05
28 *38:16 *1137:I 0.000361723
29 *38:16 *82:12 3.4596e-05
30 *40:75 *82:12 5.34417e-05
*RES
1 *928:ZN *82:4 4.5 
2 *82:4 *82:12 16.668 
3 *82:12 *1025:A2 10.04 
4 *82:12 *1041:A2 9.312 
5 *82:4 *1137:I 18.076 
*END

*D_NET *83 0.00709755
*CONN
*I *996:C I *D gf180mcu_fd_sc_mcu7t5v0__oai221_1
*I *956:B I *D gf180mcu_fd_sc_mcu7t5v0__oai21_1
*I *954:A1 I *D gf180mcu_fd_sc_mcu7t5v0__and2_1
*I *930:ZN O *D gf180mcu_fd_sc_mcu7t5v0__aoi21_1
*CAP
1 *996:C 9.07497e-05
2 *956:B 0.000310968
3 *954:A1 3.43089e-05
4 *930:ZN 0.000426941
5 *83:12 0.000681467
6 *954:A1 *954:A2 3.22108e-05
7 *954:A1 *997:B 1.12327e-05
8 *954:A1 *103:16 5.35362e-06
9 *954:A1 *200:16 1.07369e-05
10 *956:B *954:A2 7.84093e-05
11 *956:B *997:A2 0.000783702
12 *956:B *997:B 0.000190756
13 *956:B *1098:I 3.4596e-05
14 *996:C *996:A2 1.98697e-05
15 *996:C *997:B 0.000671892
16 *996:C *1098:I 0.00104843
17 *83:12 *930:B 1.38904e-05
18 *83:12 *954:A2 1.06742e-05
19 *83:12 *997:A2 2.80993e-05
20 *83:12 *1087:RN 0.000175956
21 *83:12 *200:16 0.00109818
22 *83:12 *240:16 0
23 *83:12 *241:44 6.96367e-05
24 *83:12 *241:46 2.83159e-05
25 *930:A1 *83:12 5.91309e-05
26 *930:A2 *83:12 0.000328552
27 *1058:D *83:12 0.000853491
*RES
1 *930:ZN *83:12 20.572 
2 *83:12 *954:A1 4.812 
3 *83:12 *956:B 7.308 
4 *956:B *996:C 11.808 
*END

*D_NET *84 0.00505303
*CONN
*I *951:A1 I *D gf180mcu_fd_sc_mcu7t5v0__nor4_1
*I *931:Z O *D gf180mcu_fd_sc_mcu7t5v0__xor2_1
*CAP
1 *951:A1 0.0007965
2 *931:Z 0.0007965
3 *951:A1 *931:A2 0
4 *951:A1 *936:A1 0.000250594
5 *951:A1 *946:A1 0.00101635
6 *951:A1 *951:A2 0.00021731
7 *951:A1 *994:A1 0.000197059
8 *951:A1 *994:A2 0.000271103
9 *951:A1 *1000:A1 0.000498827
10 *951:A1 *1085:RN 0
11 *951:A1 *182:16 2.27302e-05
12 *951:A1 *236:24 0
13 *951:A1 *240:44 0.000865654
14 *25:18 *951:A1 0.000120401
*RES
1 *931:Z *951:A1 27.776 
*END

*D_NET *85 0.00152897
*CONN
*I *950:A1 I *D gf180mcu_fd_sc_mcu7t5v0__nand4_1
*I *932:ZN O *D gf180mcu_fd_sc_mcu7t5v0__xnor2_1
*CAP
1 *950:A1 0.000733924
2 *932:ZN 0.000733924
3 *950:A1 *950:A4 5.83797e-05
4 *950:A1 *103:16 2.73715e-06
5 *950:A1 *196:6 0
6 *950:A1 *196:15 0
7 *1090:I *950:A1 0
*RES
1 *932:ZN *950:A1 14.408 
*END

*D_NET *86 0.00335729
*CONN
*I *952:A1 I *D gf180mcu_fd_sc_mcu7t5v0__nand4_1
*I *933:ZN O *D gf180mcu_fd_sc_mcu7t5v0__xnor2_1
*CAP
1 *952:A1 0.00107678
2 *933:ZN 0.00107678
3 *952:A1 *932:A1 2.38656e-05
4 *952:A1 *951:A3 0.000609897
5 *952:A1 *105:14 0.000569975
6 *952:A1 *230:24 0
*RES
1 *933:ZN *952:A1 18.152 
*END

*D_NET *87 0.00374302
*CONN
*I *947:A1 I *D gf180mcu_fd_sc_mcu7t5v0__nor2_1
*I *934:Z O *D gf180mcu_fd_sc_mcu7t5v0__xor2_1
*CAP
1 *947:A1 0.000747597
2 *934:Z 0.000747597
3 *947:A1 *934:A1 6.8199e-07
4 *947:A1 *952:A3 0.000451262
5 *947:A1 *1077:CLK 0
6 *947:A1 *1080:RN 0.000359533
7 *947:A1 *1080:CLK 0.000692314
8 *947:A1 *105:14 0.000302285
9 *947:A1 *192:8 0
10 *947:A1 *199:14 0.000441747
*RES
1 *934:Z *947:A1 27.568 
*END

*D_NET *88 0.00159654
*CONN
*I *949:A1 I *D gf180mcu_fd_sc_mcu7t5v0__nor4_1
*I *935:Z O *D gf180mcu_fd_sc_mcu7t5v0__xor2_1
*CAP
1 *949:A1 0.000301243
2 *935:Z 0.000301243
3 *949:A1 *935:A2 0.000597197
4 *949:A1 *941:A2 6.82261e-06
5 *949:A1 *949:A3 0.000313854
6 *949:A1 *949:A4 1.07369e-05
7 *949:A1 *969:A2 2.14739e-05
8 *949:A1 *977:A2 9.35542e-06
9 *949:A1 *190:19 1.07369e-05
10 *949:A1 *191:26 2.38773e-05
*RES
1 *935:Z *949:A1 20.704 
*END

*D_NET *89 0.00182575
*CONN
*I *950:A2 I *D gf180mcu_fd_sc_mcu7t5v0__nand4_1
*I *936:ZN O *D gf180mcu_fd_sc_mcu7t5v0__xnor2_1
*CAP
1 *950:A2 0.000376954
2 *936:ZN 0.000376954
3 *950:A2 *950:A3 8.09909e-05
4 *950:A2 *953:A1 0
5 *950:A2 *103:16 0
6 *950:A2 *105:14 0.000126374
7 *950:A2 *105:22 8.23267e-05
8 *950:A2 *196:15 8.10143e-05
9 *950:A2 *240:16 0.000701132
*RES
1 *936:ZN *950:A2 22.056 
*END

*D_NET *90 0.00394853
*CONN
*I *951:A2 I *D gf180mcu_fd_sc_mcu7t5v0__nor4_1
*I *937:Z O *D gf180mcu_fd_sc_mcu7t5v0__xor2_1
*CAP
1 *951:A2 0.000882873
2 *937:Z 0.000882873
3 *951:A2 *944:A2 2.01852e-05
4 *951:A2 *946:A1 8.40102e-05
5 *951:A2 *947:A2 0.000346997
6 *951:A2 *951:A4 7.67069e-05
7 *951:A2 *991:A1 0.00020229
8 *951:A2 *182:16 0.000203436
9 *951:A2 *240:44 0.000865654
10 *951:A1 *951:A2 0.00021731
11 *25:18 *951:A2 0.000166197
*RES
1 *937:Z *951:A2 26.944 
*END

*D_NET *91 0.00199496
*CONN
*I *952:A2 I *D gf180mcu_fd_sc_mcu7t5v0__nand4_1
*I *938:ZN O *D gf180mcu_fd_sc_mcu7t5v0__xnor2_1
*CAP
1 *952:A2 0.000666762
2 *938:ZN 0.000666762
3 *952:A2 *938:A1 1.85523e-05
4 *952:A2 *951:A3 4.40426e-05
5 *952:A2 *951:A4 2.36218e-05
6 *952:A2 *952:A4 0.000371476
7 *952:A2 *105:14 0.000203739
*RES
1 *938:ZN *952:A2 15.136 
*END

*D_NET *92 0.00896526
*CONN
*I *951:A3 I *D gf180mcu_fd_sc_mcu7t5v0__nor4_1
*I *939:Z O *D gf180mcu_fd_sc_mcu7t5v0__xor2_1
*CAP
1 *951:A3 0.00136549
2 *939:Z 0.00136549
3 *951:A3 *932:A1 0.000609848
4 *951:A3 *947:A2 0.00270372
5 *951:A3 *950:A4 0.000177825
6 *951:A3 *951:A4 1.71326e-05
7 *951:A3 *952:A4 0.0012084
8 *951:A3 *1075:CLK 1.92886e-05
9 *951:A3 *1077:RN 5.13977e-05
10 *951:A3 *105:14 3.71046e-05
11 *951:A3 *112:10 6.06951e-05
12 *951:A3 *240:25 0.000423983
13 *951:A3 *240:44 3.65102e-05
14 *952:A1 *951:A3 0.000609897
15 *952:A2 *951:A3 4.40426e-05
16 *1090:I *951:A3 4.77547e-05
17 *25:18 *951:A3 0.000186679
*RES
1 *939:Z *951:A3 36.824 
*END

*D_NET *93 0.000906745
*CONN
*I *942:A1 I *D gf180mcu_fd_sc_mcu7t5v0__nor2_1
*I *940:Z O *D gf180mcu_fd_sc_mcu7t5v0__xor2_1
*CAP
1 *942:A1 5.00119e-05
2 *940:Z 5.00119e-05
3 *942:A1 *948:A2 0.000497696
4 *942:A1 *230:87 0.000194511
5 *942:A1 *230:104 0.000114515
*RES
1 *940:Z *942:A1 10.352 
*END

*D_NET *94 0.00156162
*CONN
*I *942:A2 I *D gf180mcu_fd_sc_mcu7t5v0__nor2_1
*I *941:Z O *D gf180mcu_fd_sc_mcu7t5v0__xor2_1
*CAP
1 *942:A2 0.000623654
2 *941:Z 0.000623654
3 *942:A2 *940:A1 1.71326e-05
4 *942:A2 *941:A1 4.67771e-06
5 *942:A2 *948:A1 0.000103468
6 *942:A2 *230:87 0.000189037
*RES
1 *941:Z *942:A2 13.992 
*END

*D_NET *95 0.0040511
*CONN
*I *952:A3 I *D gf180mcu_fd_sc_mcu7t5v0__nand4_1
*I *942:ZN O *D gf180mcu_fd_sc_mcu7t5v0__nor2_1
*CAP
1 *952:A3 0.00126038
2 *942:ZN 0.00126038
3 *952:A3 *978:A1 6.08446e-05
4 *952:A3 *1080:CLK 0.000381274
5 *952:A3 *120:18 0.000636952
6 *947:A1 *952:A3 0.000451262
*RES
1 *942:ZN *952:A3 31.624 
*END

*D_NET *96 0.00309234
*CONN
*I *949:A2 I *D gf180mcu_fd_sc_mcu7t5v0__nor4_1
*I *943:Z O *D gf180mcu_fd_sc_mcu7t5v0__xor2_1
*CAP
1 *949:A2 0.00132266
2 *943:Z 0.00132266
3 *949:A2 *943:A1 0
4 *949:A2 *957:A2 5.69355e-05
5 *949:A2 *973:A1 6.73542e-05
6 *949:A2 *974:A2 0.000134184
7 *949:A2 *977:A2 0.000171421
8 *949:A2 *1078:RN 0
9 *949:A2 *190:12 0
10 *949:A2 *190:19 1.71299e-05
11 *949:A2 *230:79 0
12 *949:A2 *238:105 0
13 *1079:D *949:A2 0
*RES
1 *943:Z *949:A2 17.944 
*END

*D_NET *97 0.00321071
*CONN
*I *951:A4 I *D gf180mcu_fd_sc_mcu7t5v0__nor4_1
*I *944:Z O *D gf180mcu_fd_sc_mcu7t5v0__xor2_1
*CAP
1 *951:A4 0.000567365
2 *944:Z 0.000567365
3 *951:A4 *938:A1 1.26329e-05
4 *951:A4 *944:A2 0.000119524
5 *951:A4 *947:A2 0.000115166
6 *951:A4 *991:A1 0.0008879
7 *951:A4 *991:A2 0.00033912
8 *951:A4 *992:A2 3.42651e-05
9 *951:A4 *236:12 0.000401518
10 *951:A2 *951:A4 7.67069e-05
11 *951:A3 *951:A4 1.71326e-05
12 *952:A2 *951:A4 2.36218e-05
13 *1085:D *951:A4 4.83913e-05
*RES
1 *944:Z *951:A4 15.552 
*END

*D_NET *98 0.0014706
*CONN
*I *949:A3 I *D gf180mcu_fd_sc_mcu7t5v0__nor4_1
*I *945:Z O *D gf180mcu_fd_sc_mcu7t5v0__xor2_1
*CAP
1 *949:A3 0.000346589
2 *945:Z 0.000346589
3 *949:A3 *935:A2 2.05176e-05
4 *949:A3 *941:A2 5.55501e-05
5 *949:A3 *949:A4 6.11921e-05
6 *949:A3 *969:A2 1.36398e-06
7 *949:A3 *977:A2 0.00017298
8 *949:A3 *191:26 0.000151966
9 *949:A1 *949:A3 0.000313854
*RES
1 *945:Z *949:A3 20.808 
*END

*D_NET *99 0.00506242
*CONN
*I *947:A2 I *D gf180mcu_fd_sc_mcu7t5v0__nor2_1
*I *946:Z O *D gf180mcu_fd_sc_mcu7t5v0__xor2_1
*CAP
1 *947:A2 0.000367839
2 *946:Z 0.000367839
3 *947:A2 *240:44 0.00116086
4 *951:A2 *947:A2 0.000346997
5 *951:A3 *947:A2 0.00270372
6 *951:A4 *947:A2 0.000115166
*RES
1 *946:Z *947:A2 18.256 
*END

*D_NET *100 0.00107068
*CONN
*I *950:A3 I *D gf180mcu_fd_sc_mcu7t5v0__nand4_1
*I *947:ZN O *D gf180mcu_fd_sc_mcu7t5v0__nor2_1
*CAP
1 *950:A3 0.000379058
2 *947:ZN 0.000379058
3 *950:A3 *105:14 1.49202e-05
4 *950:A3 *189:8 0.000116466
5 *950:A2 *950:A3 8.09909e-05
6 *25:18 *950:A3 0.00010019
*RES
1 *947:ZN *950:A3 20.912 
*END

*D_NET *101 0.00227877
*CONN
*I *949:A4 I *D gf180mcu_fd_sc_mcu7t5v0__nor4_1
*I *948:Z O *D gf180mcu_fd_sc_mcu7t5v0__xor2_1
*CAP
1 *949:A4 0.000488376
2 *948:Z 0.000488376
3 *949:A4 *941:A2 6.06196e-05
4 *949:A4 *977:A2 0.000653295
5 *949:A4 *978:A3 0.000509988
6 *949:A4 *191:26 6.18411e-06
7 *949:A4 *230:87 0
8 *949:A1 *949:A4 1.07369e-05
9 *949:A3 *949:A4 6.11921e-05
*RES
1 *948:Z *949:A4 13.992 
*END

*D_NET *102 0.00459395
*CONN
*I *950:A4 I *D gf180mcu_fd_sc_mcu7t5v0__nand4_1
*I *949:ZN O *D gf180mcu_fd_sc_mcu7t5v0__nor4_1
*CAP
1 *950:A4 0.00167786
2 *949:ZN 0.00167786
3 *950:A4 *932:A1 0
4 *950:A4 *935:A2 4.58667e-05
5 *950:A4 *941:A2 3.48215e-05
6 *950:A4 *972:A1 5.61372e-05
7 *950:A4 *189:18 0.000436267
8 *950:A4 *230:87 2.37133e-06
9 *950:A1 *950:A4 5.83797e-05
10 *951:A3 *950:A4 0.000177825
11 *1090:I *950:A4 9.33987e-05
12 *25:18 *950:A4 0.00033317
*RES
1 *949:ZN *950:A4 34.016 
*END

*D_NET *103 0.00662
*CONN
*I *953:A1 I *D gf180mcu_fd_sc_mcu7t5v0__nor2_1
*I *996:A1 I *D gf180mcu_fd_sc_mcu7t5v0__oai221_1
*I *956:A1 I *D gf180mcu_fd_sc_mcu7t5v0__oai21_1
*I *950:ZN O *D gf180mcu_fd_sc_mcu7t5v0__nand4_1
*CAP
1 *953:A1 0.000105686
2 *996:A1 0.000234435
3 *956:A1 0
4 *950:ZN 0.000133342
5 *103:16 0.000682774
6 *103:6 0.000687367
7 *953:A1 *196:15 4.91701e-05
8 *996:A1 *956:A2 1.23682e-05
9 *996:A1 *996:A2 0.000609174
10 *996:A1 *997:B 0.000904652
11 *103:16 *997:A1 2.14739e-05
12 *103:16 *997:A2 1.06742e-05
13 *103:16 *997:B 0.00100398
14 *103:16 *1097:I 0.00200906
15 *103:16 *1098:I 0.000103788
16 *103:16 *196:15 3.32327e-05
17 *103:16 *200:16 1.07369e-05
18 *950:A1 *103:16 2.73715e-06
19 *950:A2 *953:A1 0
20 *950:A2 *103:16 0
21 *954:A1 *103:16 5.35362e-06
*RES
1 *950:ZN *103:6 5.644 
2 *103:6 *103:16 15.552 
3 *103:16 *956:A1 4.5 
4 *103:16 *996:A1 8.764 
5 *103:6 *953:A1 5.228 
*END

*D_NET *104 0.00311257
*CONN
*I *952:A4 I *D gf180mcu_fd_sc_mcu7t5v0__nand4_1
*I *951:ZN O *D gf180mcu_fd_sc_mcu7t5v0__nor4_1
*CAP
1 *952:A4 0.000766349
2 *951:ZN 0.000766349
3 *952:A4 *199:44 0
4 *951:A3 *952:A4 0.0012084
5 *952:A2 *952:A4 0.000371476
*RES
1 *951:ZN *952:A4 25.384 
*END

*D_NET *105 0.00670799
*CONN
*I *953:A2 I *D gf180mcu_fd_sc_mcu7t5v0__nor2_1
*I *956:A2 I *D gf180mcu_fd_sc_mcu7t5v0__oai21_1
*I *996:A2 I *D gf180mcu_fd_sc_mcu7t5v0__oai221_1
*I *952:ZN O *D gf180mcu_fd_sc_mcu7t5v0__nand4_1
*CAP
1 *953:A2 0
2 *956:A2 2.77376e-05
3 *996:A2 0.000390553
4 *952:ZN 0.000729797
5 *105:22 0.000776504
6 *105:14 0.00108801
7 *996:A2 *936:A1 0.000230126
8 *996:A2 *997:B 0
9 *996:A2 *1093:I 0.000128915
10 *996:A2 *1098:I 3.95979e-05
11 *996:A2 *196:19 0.000111423
12 *105:14 *1080:RN 0.000510573
13 *105:14 *189:8 2.27712e-05
14 *105:14 *196:15 5.77431e-06
15 *105:14 *240:16 0
16 *105:22 *936:A1 4.07478e-05
17 *105:22 *997:A1 2.90272e-05
18 *105:22 *1087:CLK 2.73715e-06
19 *105:22 *1097:I 0.000115658
20 *105:22 *1098:I 3.10787e-05
21 *105:22 *184:14 8.31025e-05
22 *105:22 *240:16 0.000365717
23 *947:A1 *105:14 0.000302285
24 *950:A2 *105:14 0.000126374
25 *950:A2 *105:22 8.23267e-05
26 *950:A3 *105:14 1.49202e-05
27 *951:A3 *105:14 3.71046e-05
28 *952:A1 *105:14 0.000569975
29 *952:A2 *105:14 0.000203739
30 *996:A1 *956:A2 1.23682e-05
31 *996:A1 *996:A2 0.000609174
32 *996:C *996:A2 1.98697e-05
33 *1087:D *956:A2 0
34 *25:18 *105:14 0
*RES
1 *952:ZN *105:14 20.884 
2 *105:14 *105:22 12.952 
3 *105:22 *996:A2 9.596 
4 *105:22 *956:A2 4.812 
5 *105:14 *953:A2 4.5 
*END

*D_NET *106 0.0030384
*CONN
*I *954:A2 I *D gf180mcu_fd_sc_mcu7t5v0__and2_1
*I *953:ZN O *D gf180mcu_fd_sc_mcu7t5v0__nor2_1
*CAP
1 *954:A2 0.00042963
2 *953:ZN 0.00042963
3 *954:A2 *997:A1 8.69612e-05
4 *954:A2 *997:A2 0.000803879
5 *954:A2 *1097:I 0.000104928
6 *954:A2 *240:16 0.00106208
7 *954:A1 *954:A2 3.22108e-05
8 *956:B *954:A2 7.84093e-05
9 *83:12 *954:A2 1.06742e-05
*RES
1 *953:ZN *954:A2 23.616 
*END

*D_NET *107 0.00998093
*CONN
*I *1098:I I *D gf180mcu_fd_sc_mcu7t5v0__dlyb_1
*I *1097:I I *D gf180mcu_fd_sc_mcu7t5v0__dlyb_1
*I *956:ZN O *D gf180mcu_fd_sc_mcu7t5v0__oai21_1
*CAP
1 *1098:I 0.0013374
2 *1097:I 0.000744672
3 *956:ZN 0
4 *107:4 0.00208207
5 *1097:I *997:A1 0.000614351
6 *1097:I *997:A2 1.27019e-05
7 *1097:I *189:8 1.51772e-05
8 *1097:I *240:16 0.000204966
9 *1098:I *931:A2 4.49667e-05
10 *1098:I *936:A1 3.0917e-05
11 *1098:I *995:A3 1.09428e-05
12 *1098:I *997:A2 0.000425026
13 *1098:I *997:B 5.89482e-05
14 *1098:I *999:A2 2.83666e-05
15 *1098:I *132:8 3.99408e-05
16 *1098:I *132:25 0.00034061
17 *1098:I *184:14 0.000343529
18 *1098:I *200:43 3.4046e-05
19 *954:A2 *1097:I 0.000104928
20 *956:B *1098:I 3.4596e-05
21 *996:A2 *1098:I 3.95979e-05
22 *996:C *1098:I 0.00104843
23 *1087:D *1097:I 0.000125157
24 *103:16 *1097:I 0.00200906
25 *103:16 *1098:I 0.000103788
26 *105:22 *1097:I 0.000115658
27 *105:22 *1098:I 3.10787e-05
*RES
1 *956:ZN *107:4 4.5 
2 *107:4 *1097:I 22.86 
3 *107:4 *1098:I 26.084 
*END

*D_NET *108 0.00042423
*CONN
*I *959:A2 I *D gf180mcu_fd_sc_mcu7t5v0__nor2_1
*I *958:ZN O *D gf180mcu_fd_sc_mcu7t5v0__xnor2_1
*CAP
1 *959:A2 0.000191011
2 *958:ZN 0.000191011
3 *959:A2 *932:A2 4.22072e-05
4 *959:A2 *958:A2 0
*RES
1 *958:ZN *959:A2 10.456 
*END

*D_NET *109 0.00358617
*CONN
*I *962:A2 I *D gf180mcu_fd_sc_mcu7t5v0__nor3_1
*I *963:A2 I *D gf180mcu_fd_sc_mcu7t5v0__and2_1
*I *965:A2 I *D gf180mcu_fd_sc_mcu7t5v0__nor2_1
*I *960:Z O *D gf180mcu_fd_sc_mcu7t5v0__and3_1
*CAP
1 *962:A2 0
2 *963:A2 9.39712e-05
3 *965:A2 0.000120899
4 *960:Z 0.000169768
5 *109:12 0.000321266
6 *109:8 0.000276164
7 *963:A2 *1075:CLK 0.000720651
8 *963:A2 *188:23 0.000270995
9 *965:A2 *939:A1 0.000128112
10 *965:A2 *965:A1 0
11 *965:A2 *966:A3 0.000100568
12 *965:A2 *179:38 0.000334711
13 *109:8 *961:A2 4.2398e-05
14 *109:8 *962:A3 6.32895e-05
15 *109:8 *188:23 8.44565e-06
16 *109:8 *230:32 0.000428493
17 *109:12 *965:A1 0
18 *109:12 *179:38 0.000501766
19 *109:12 *188:10 0
20 *1075:D *109:8 4.67771e-06
*RES
1 *960:Z *109:8 6.372 
2 *109:8 *109:12 5.852 
3 *109:12 *965:A2 10.664 
4 *109:12 *963:A2 10.976 
5 *109:8 *962:A2 4.5 
*END

*D_NET *110 0.000470362
*CONN
*I *962:A3 I *D gf180mcu_fd_sc_mcu7t5v0__nor3_1
*I *961:ZN O *D gf180mcu_fd_sc_mcu7t5v0__aoi21_1
*CAP
1 *962:A3 0.000174519
2 *961:ZN 0.000174519
3 *962:A3 *961:A2 1.94441e-05
4 *962:A3 *179:38 3.85899e-05
5 *962:A3 *187:29 0
6 *109:8 *962:A3 6.32895e-05
*RES
1 *961:ZN *962:A3 10.768 
*END

*D_NET *111 0.00336012
*CONN
*I *966:A2 I *D gf180mcu_fd_sc_mcu7t5v0__nor3_1
*I *971:A2 I *D gf180mcu_fd_sc_mcu7t5v0__aoi21_1
*I *963:Z O *D gf180mcu_fd_sc_mcu7t5v0__and2_1
*CAP
1 *966:A2 0.00020219
2 *971:A2 0.000475905
3 *963:Z 6.81137e-05
4 *111:8 0.000746208
5 *966:A2 *939:A1 9.08683e-05
6 *966:A2 *230:49 0.000184188
7 *971:A2 *933:A1 0.000551516
8 *971:A2 *973:A1 0.000171408
9 *971:A2 *1078:RN 0.000202464
10 *971:A2 *230:38 0
11 *971:A2 *230:49 0.000511042
12 *971:A2 *230:79 5.38712e-05
13 *111:8 *933:A1 0.000102348
14 *111:8 *230:38 0
*RES
1 *963:Z *111:8 9.936 
2 *111:8 *971:A2 16.28 
3 *111:8 *966:A2 10.976 
*END

*D_NET *112 0.00898295
*CONN
*I *967:A2 I *D gf180mcu_fd_sc_mcu7t5v0__xor2_1
*I *989:A1 I *D gf180mcu_fd_sc_mcu7t5v0__nor4_1
*I *976:A1 I *D gf180mcu_fd_sc_mcu7t5v0__nor3_1
*I *970:A1 I *D gf180mcu_fd_sc_mcu7t5v0__nor2_1
*I *964:ZN O *D gf180mcu_fd_sc_mcu7t5v0__nand4_1
*CAP
1 *967:A2 0.000233296
2 *989:A1 0.0001917
3 *976:A1 2.58353e-05
4 *970:A1 0.000188353
5 *964:ZN 0.000798438
6 *112:18 0.000332637
7 *112:14 0.000928834
8 *112:10 0.00165042
9 *967:A2 *967:A1 0.000334704
10 *967:A2 *968:A2 2.11015e-05
11 *970:A1 *989:A2 0
12 *970:A1 *115:8 1.85523e-05
13 *970:A1 *115:19 0.000137277
14 *970:A1 *120:18 6.88149e-05
15 *976:A1 *115:19 2.46717e-05
16 *976:A1 *120:18 1.07369e-05
17 *989:A1 *989:A2 0.000226136
18 *989:A1 *1080:RN 0.000263725
19 *989:A1 *115:19 1.37544e-05
20 *989:A1 *120:18 0.00117838
21 *112:10 *933:A1 0.000103933
22 *112:10 *933:A2 8.1598e-06
23 *112:10 *939:A2 7.17602e-05
24 *112:10 *968:A1 0.000162991
25 *112:10 *968:A2 3.42651e-05
26 *112:10 *1075:CLK 0
27 *112:10 *189:18 6.06492e-05
28 *112:10 *230:24 0.00016914
29 *112:14 *934:A1 3.646e-05
30 *112:14 *1080:RN 0.000100581
31 *112:14 *189:8 7.17651e-05
32 *112:14 *189:18 0.000346468
33 *112:14 *192:16 0.000438808
34 *112:18 *192:16 0.000262946
35 *951:A3 *112:10 6.06951e-05
36 *1077:D *967:A2 6.91919e-05
37 *1077:D *112:10 0.000337769
*RES
1 *964:ZN *112:10 11.676 
2 *112:10 *112:14 10.428 
3 *112:14 *112:18 5.228 
4 *112:18 *970:A1 6.372 
5 *112:18 *976:A1 4.812 
6 *112:14 *989:A1 12.224 
7 *112:10 *967:A2 6.58 
*END

*D_NET *113 0.000361589
*CONN
*I *966:A3 I *D gf180mcu_fd_sc_mcu7t5v0__nor3_1
*I *965:ZN O *D gf180mcu_fd_sc_mcu7t5v0__nor2_1
*CAP
1 *966:A3 0.000102209
2 *965:ZN 0.000102209
3 *966:A3 *939:A1 8.16884e-06
4 *965:A2 *966:A3 0.000100568
5 *1076:D *966:A3 4.84332e-05
*RES
1 *965:ZN *966:A3 9.936 
*END

*D_NET *114 0.00139288
*CONN
*I *968:A2 I *D gf180mcu_fd_sc_mcu7t5v0__nor2_1
*I *967:Z O *D gf180mcu_fd_sc_mcu7t5v0__xor2_1
*CAP
1 *968:A2 0.000321279
2 *967:Z 0.000321279
3 *968:A2 *967:A1 6.83697e-05
4 *968:A2 *1077:CLK 6.95257e-05
5 *968:A2 *189:18 0.000252443
6 *967:A2 *968:A2 2.11015e-05
7 *1077:D *968:A2 0.000304622
8 *112:10 *968:A2 3.42651e-05
*RES
1 *967:Z *968:A2 12.536 
*END

*D_NET *115 0.00286343
*CONN
*I *989:A2 I *D gf180mcu_fd_sc_mcu7t5v0__nor4_1
*I *976:A2 I *D gf180mcu_fd_sc_mcu7t5v0__nor3_1
*I *970:A2 I *D gf180mcu_fd_sc_mcu7t5v0__nor2_1
*I *969:ZN O *D gf180mcu_fd_sc_mcu7t5v0__nand2_1
*CAP
1 *989:A2 0.000360512
2 *976:A2 0
3 *970:A2 0
4 *969:ZN 0.000176727
5 *115:19 0.000686522
6 *115:8 0.000502738
7 *989:A2 *989:A3 0.00019538
8 *989:A2 *1080:RN 0.000272942
9 *989:A2 *120:18 7.87395e-06
10 *115:8 *975:A1 7.86287e-05
11 *115:8 *116:12 5.90026e-05
12 *115:8 *191:34 4.85554e-06
13 *115:19 *975:A1 4.46284e-05
14 *115:19 *976:A3 1.24769e-05
15 *115:19 *977:B 0
16 *115:19 *989:A3 4.07478e-05
17 *970:A1 *989:A2 0
18 *970:A1 *115:8 1.85523e-05
19 *970:A1 *115:19 0.000137277
20 *976:A1 *115:19 2.46717e-05
21 *989:A1 *989:A2 0.000226136
22 *989:A1 *115:19 1.37544e-05
*RES
1 *969:ZN *115:8 6.164 
2 *115:8 *970:A2 4.5 
3 *115:8 *115:19 2.6 
4 *115:19 *976:A2 4.5 
5 *115:19 *989:A2 7.932 
*END

*D_NET *116 0.00643208
*CONN
*I *972:A2 I *D gf180mcu_fd_sc_mcu7t5v0__nor3_1
*I *977:A2 I *D gf180mcu_fd_sc_mcu7t5v0__aoi21_1
*I *973:A2 I *D gf180mcu_fd_sc_mcu7t5v0__xnor2_1
*I *970:ZN O *D gf180mcu_fd_sc_mcu7t5v0__nor2_1
*CAP
1 *972:A2 0
2 *977:A2 0.00056074
3 *973:A2 0
4 *970:ZN 0.000769309
5 *116:18 0.000877456
6 *116:12 0.00108603
7 *977:A2 *969:A2 3.02537e-06
8 *977:A2 *973:A1 1.41781e-05
9 *977:A2 *977:A1 2.60128e-05
10 *977:A2 *978:A3 3.4596e-05
11 *977:A2 *190:19 0
12 *977:A2 *191:26 3.2525e-05
13 *977:A2 *191:34 6.55629e-05
14 *116:12 *971:A1 6.48242e-05
15 *116:12 *972:A3 1.40331e-05
16 *116:12 *191:34 0
17 *116:18 *932:A1 0.00132956
18 *116:18 *933:A1 0
19 *949:A1 *977:A2 9.35542e-06
20 *949:A2 *977:A2 0.000171421
21 *949:A3 *977:A2 0.00017298
22 *949:A4 *977:A2 0.000653295
23 *1078:D *116:18 0.000488181
24 *115:8 *116:12 5.90026e-05
*RES
1 *970:ZN *116:12 9.492 
2 *116:12 *116:18 12.64 
3 *116:18 *973:A2 4.5 
4 *116:18 *977:A2 9.804 
5 *116:12 *972:A2 4.5 
*END

*D_NET *117 0.000354147
*CONN
*I *972:A3 I *D gf180mcu_fd_sc_mcu7t5v0__nor3_1
*I *971:ZN O *D gf180mcu_fd_sc_mcu7t5v0__aoi21_1
*CAP
1 *972:A3 0.00016304
2 *971:ZN 0.00016304
3 *972:A3 *971:A1 1.40331e-05
4 *116:12 *972:A3 1.40331e-05
*RES
1 *971:ZN *972:A3 10.352 
*END

*D_NET *118 0.00125757
*CONN
*I *974:A2 I *D gf180mcu_fd_sc_mcu7t5v0__nor2_1
*I *973:ZN O *D gf180mcu_fd_sc_mcu7t5v0__xnor2_1
*CAP
1 *974:A2 0.000444949
2 *973:ZN 0.000444949
3 *974:A2 *190:12 0.000122054
4 *974:A2 *230:79 0.000111435
5 *949:A2 *974:A2 0.000134184
*RES
1 *973:ZN *974:A2 12.64 
*END

*D_NET *119 0.00123513
*CONN
*I *989:A3 I *D gf180mcu_fd_sc_mcu7t5v0__nor4_1
*I *976:A3 I *D gf180mcu_fd_sc_mcu7t5v0__nor3_1
*I *975:ZN O *D gf180mcu_fd_sc_mcu7t5v0__nand2_1
*CAP
1 *989:A3 0.000424005
2 *976:A3 0.000493262
3 *975:ZN 6.92571e-05
4 *989:A2 *989:A3 0.00019538
5 *115:19 *976:A3 1.24769e-05
6 *115:19 *989:A3 4.07478e-05
*RES
1 *975:ZN *976:A3 9.52 
2 *976:A3 *989:A3 12.12 
*END

*D_NET *120 0.0113075
*CONN
*I *981:A3 I *D gf180mcu_fd_sc_mcu7t5v0__and3_1
*I *979:A2 I *D gf180mcu_fd_sc_mcu7t5v0__xnor2_1
*I *982:A2 I *D gf180mcu_fd_sc_mcu7t5v0__aoi21_1
*I *978:A2 I *D gf180mcu_fd_sc_mcu7t5v0__nor3_1
*I *976:ZN O *D gf180mcu_fd_sc_mcu7t5v0__nor3_1
*CAP
1 *981:A3 0.000484676
2 *979:A2 0.000528701
3 *982:A2 7.34882e-05
4 *978:A2 0
5 *976:ZN 0.00103275
6 *120:36 0.0011565
7 *120:25 0.000862256
8 *120:18 0.00167839
9 *979:A2 *940:A2 2.2027e-06
10 *979:A2 *982:A1 0
11 *979:A2 *983:A3 5.50559e-05
12 *979:A2 *990:A1 5.84336e-05
13 *979:A2 *990:A2 4.19568e-05
14 *979:A2 *193:34 6.8199e-07
15 *979:A2 *230:104 0.000422961
16 *981:A3 *940:A2 8.25754e-06
17 *981:A3 *981:A2 0.00065789
18 *981:A3 *990:A1 0.000528419
19 *981:A3 *990:A3 0.00116493
20 *981:A3 *129:8 8.44565e-06
21 *981:A3 *194:18 3.60621e-05
22 *120:18 *948:A2 0
23 *120:18 *192:8 3.80299e-05
24 *120:18 *192:16 8.44565e-06
25 *120:25 *940:A2 0
26 *120:25 *948:A2 8.86703e-05
27 *120:25 *978:A3 3.4596e-05
28 *120:36 *948:A2 0
29 *120:36 *982:A1 0.000371669
30 *120:36 *230:104 0
31 *952:A3 *120:18 0.000636952
32 *970:A1 *120:18 6.88149e-05
33 *976:A1 *120:18 1.07369e-05
34 *989:A1 *120:18 0.00117838
35 *989:A2 *120:18 7.87395e-06
36 *1084:D *979:A2 6.12333e-05
*RES
1 *976:ZN *120:18 22.756 
2 *120:18 *978:A2 4.5 
3 *120:18 *120:25 4.472 
4 *120:25 *982:A2 5.02 
5 *120:25 *120:36 5.852 
6 *120:36 *979:A2 13.68 
7 *120:36 *981:A3 14.2 
*END

*D_NET *121 0.00216472
*CONN
*I *978:A3 I *D gf180mcu_fd_sc_mcu7t5v0__nor3_1
*I *977:ZN O *D gf180mcu_fd_sc_mcu7t5v0__aoi21_1
*CAP
1 *978:A3 0.000738852
2 *977:ZN 0.000738852
3 *978:A3 *934:A1 0
4 *978:A3 *948:A2 2.97009e-05
5 *978:A3 *977:B 3.1074e-05
6 *978:A3 *191:34 0
7 *978:A3 *230:87 0
8 *949:A4 *978:A3 0.000509988
9 *977:A2 *978:A3 3.4596e-05
10 *1080:D *978:A3 4.70558e-05
11 *120:25 *978:A3 3.4596e-05
*RES
1 *977:ZN *978:A3 23.2 
*END

*D_NET *122 0.000884268
*CONN
*I *980:A2 I *D gf180mcu_fd_sc_mcu7t5v0__nor2_1
*I *979:ZN O *D gf180mcu_fd_sc_mcu7t5v0__xnor2_1
*CAP
1 *980:A2 0.000287414
2 *979:ZN 0.000287414
3 *980:A2 *980:A1 0.000298703
4 *980:A2 *1082:RN 0
5 *980:A2 *230:104 1.07369e-05
*RES
1 *979:ZN *980:A2 11.392 
*END

*D_NET *123 0.00634529
*CONN
*I *984:A2 I *D gf180mcu_fd_sc_mcu7t5v0__nor2_1
*I *985:A2 I *D gf180mcu_fd_sc_mcu7t5v0__and2_1
*I *987:A2 I *D gf180mcu_fd_sc_mcu7t5v0__aoi21_1
*I *983:A2 I *D gf180mcu_fd_sc_mcu7t5v0__nor3_1
*I *981:Z O *D gf180mcu_fd_sc_mcu7t5v0__and3_1
*CAP
1 *984:A2 0.000106595
2 *985:A2 0.000198973
3 *987:A2 0
4 *983:A2 0.00039177
5 *981:Z 0
6 *123:12 0.000469976
7 *123:8 0.000432302
8 *123:4 0.000261718
9 *983:A2 *983:A3 3.22108e-05
10 *983:A2 *990:A2 0.000541343
11 *983:A2 *1084:CLK 0
12 *983:A2 *199:52 0.00153914
13 *984:A2 *986:A2 4.07478e-05
14 *984:A2 *990:A1 5.47431e-06
15 *985:A2 *985:A1 6.32149e-05
16 *985:A2 *986:A1 0.000103788
17 *985:A2 *986:A3 9.09864e-05
18 *985:A2 *193:10 3.57634e-06
19 *985:A2 *193:12 7.15269e-06
20 *123:8 *986:A1 0.000166817
21 *123:8 *986:A2 8.92045e-06
22 *123:8 *990:A1 6.06017e-05
23 *123:8 *193:12 7.67469e-06
24 *123:12 *990:A2 8.35223e-05
25 *123:12 *180:16 0.000740576
26 *123:12 *199:52 0.000988203
*RES
1 *981:Z *123:4 4.5 
2 *123:4 *123:8 1.248 
3 *123:8 *123:12 7.1 
4 *123:12 *983:A2 13.576 
5 *123:12 *987:A2 9 
6 *123:8 *985:A2 6.164 
7 *123:4 *984:A2 5.54 
*END

*D_NET *124 0.00217617
*CONN
*I *983:A3 I *D gf180mcu_fd_sc_mcu7t5v0__nor3_1
*I *982:ZN O *D gf180mcu_fd_sc_mcu7t5v0__aoi21_1
*CAP
1 *983:A3 0.000765316
2 *982:ZN 0.000765316
3 *983:A3 *940:A2 0.000176951
4 *983:A3 *1084:CLK 0
5 *983:A3 *230:104 0.000333334
6 *979:A2 *983:A3 5.50559e-05
7 *983:A2 *983:A3 3.22108e-05
8 *1084:D *983:A3 4.79893e-05
*RES
1 *982:ZN *983:A3 24.24 
*END

*D_NET *125 0.00185691
*CONN
*I *986:A2 I *D gf180mcu_fd_sc_mcu7t5v0__nor3_1
*I *984:ZN O *D gf180mcu_fd_sc_mcu7t5v0__nor2_1
*CAP
1 *986:A2 0.000211971
2 *984:ZN 0.000211971
3 *986:A2 *984:A1 0.000245642
4 *986:A2 *985:A1 7.51586e-05
5 *986:A2 *986:A1 2.88595e-06
6 *986:A2 *199:48 0.000116466
7 *986:A2 *199:52 0.000424122
8 *986:A2 *240:61 0.000510584
9 *984:A2 *986:A2 4.07478e-05
10 *1083:D *986:A2 8.44565e-06
11 *123:8 *986:A2 8.92045e-06
*RES
1 *984:ZN *986:A2 20.704 
*END

*D_NET *126 0.000307571
*CONN
*I *986:A3 I *D gf180mcu_fd_sc_mcu7t5v0__nor3_1
*I *985:Z O *D gf180mcu_fd_sc_mcu7t5v0__and2_1
*CAP
1 *986:A3 8.37017e-05
2 *985:Z 8.37017e-05
3 *986:A3 *193:10 4.91818e-05
4 *985:A2 *986:A3 9.09864e-05
*RES
1 *985:Z *986:A3 9.728 
*END

*D_NET *127 0.00224021
*CONN
*I *990:A2 I *D gf180mcu_fd_sc_mcu7t5v0__nor3_1
*I *987:ZN O *D gf180mcu_fd_sc_mcu7t5v0__aoi21_1
*CAP
1 *990:A2 0.000383189
2 *987:ZN 0.000383189
3 *990:A2 *982:A1 0.00080701
4 *979:A2 *990:A2 4.19568e-05
5 *983:A2 *990:A2 0.000541343
6 *123:12 *990:A2 8.35223e-05
*RES
1 *987:ZN *990:A2 21.952 
*END

*D_NET *128 0.0018547
*CONN
*I *989:A4 I *D gf180mcu_fd_sc_mcu7t5v0__nor4_1
*I *988:ZN O *D gf180mcu_fd_sc_mcu7t5v0__nand4_1
*CAP
1 *989:A4 0.000625547
2 *988:ZN 0.000625547
3 *989:A4 *948:A2 0
4 *989:A4 *981:A2 0.000419276
5 *989:A4 *129:8 8.43177e-05
6 *989:A4 *194:12 1.71326e-05
7 *989:A4 *194:16 8.28798e-05
*RES
1 *988:ZN *989:A4 14.096 
*END

*D_NET *129 0.00623134
*CONN
*I *1142:I I *D gf180mcu_fd_sc_mcu7t5v0__dlyb_1
*I *990:A3 I *D gf180mcu_fd_sc_mcu7t5v0__nor3_1
*I *989:ZN O *D gf180mcu_fd_sc_mcu7t5v0__nor4_1
*CAP
1 *1142:I 0.000787379
2 *990:A3 0.000235405
3 *989:ZN 0.000772744
4 *129:8 0.00179553
5 *990:A3 *990:A1 0.00124552
6 *1142:I *199:44 8.5094e-05
7 *129:8 *981:A2 5.19755e-05
8 *981:A3 *990:A3 0.00116493
9 *981:A3 *129:8 8.44565e-06
10 *989:A4 *129:8 8.43177e-05
*RES
1 *989:ZN *129:8 14.512 
2 *129:8 *990:A3 13.056 
3 *129:8 *1142:I 15.656 
*END

*D_NET *130 0.000975468
*CONN
*I *992:A2 I *D gf180mcu_fd_sc_mcu7t5v0__nor2_1
*I *991:ZN O *D gf180mcu_fd_sc_mcu7t5v0__xnor2_1
*CAP
1 *992:A2 0.000103042
2 *991:ZN 0.000103042
3 *992:A2 *991:A2 0.000311231
4 *992:A2 *231:23 5.10196e-05
5 *992:A2 *236:12 0.000255668
6 *951:A4 *992:A2 3.42651e-05
7 *1085:D *992:A2 0.0001172
*RES
1 *991:ZN *992:A2 10.768 
*END

*D_NET *131 0.00352985
*CONN
*I *995:A2 I *D gf180mcu_fd_sc_mcu7t5v0__nor3_1
*I *993:ZN O *D gf180mcu_fd_sc_mcu7t5v0__aoi21_1
*CAP
1 *995:A2 0.000562469
2 *993:ZN 0.000562469
3 *995:A2 *936:A1 0.000636134
4 *995:A2 *993:A1 1.79718e-05
5 *995:A2 *993:A2 5.12485e-05
6 *995:A2 *994:A1 0.000182219
7 *995:A2 *995:A1 0.000215267
8 *995:A2 *1000:A1 0.000306249
9 *995:A2 *1085:RN 3.03865e-05
10 *995:A2 *1086:RN 8.88029e-05
11 *995:A2 *182:10 6.28158e-05
12 *995:A2 *183:17 0
13 *995:A2 *231:6 0.000418111
14 *995:A2 *231:12 0.000116466
15 *995:A2 *236:24 0.000279245
*RES
1 *993:ZN *995:A2 24.448 
*END

*D_NET *132 0.0127612
*CONN
*I *998:A2 I *D gf180mcu_fd_sc_mcu7t5v0__aoi21_1
*I *999:A3 I *D gf180mcu_fd_sc_mcu7t5v0__and3_1
*I *996:B1 I *D gf180mcu_fd_sc_mcu7t5v0__oai221_1
*I *997:A2 I *D gf180mcu_fd_sc_mcu7t5v0__aoi21_1
*I *995:A3 I *D gf180mcu_fd_sc_mcu7t5v0__nor3_1
*I *994:Z O *D gf180mcu_fd_sc_mcu7t5v0__and3_1
*CAP
1 *998:A2 0.000304758
2 *999:A3 0
3 *996:B1 0
4 *997:A2 0.000529008
5 *995:A3 6.92757e-05
6 *994:Z 0.000358791
7 *132:25 0.000760974
8 *132:23 0.000282638
9 *132:19 0.000538215
10 *132:8 0.000610853
11 *995:A3 *936:A1 0.000265539
12 *997:A2 *997:A1 8.05274e-05
13 *997:A2 *184:38 0.00120221
14 *997:A2 *196:15 0
15 *997:A2 *200:16 2.60017e-05
16 *998:A2 *998:A1 0.000275648
17 *998:A2 *1088:CLK 2.81522e-06
18 *998:A2 *185:14 0.000122457
19 *998:A2 *200:59 4.55356e-05
20 *132:8 *931:A2 0
21 *132:8 *936:A1 0.00123061
22 *132:19 *1086:RN 0.000120138
23 *132:19 *185:14 1.25277e-05
24 *132:23 *999:A2 0.000213721
25 *132:23 *184:47 3.4596e-05
26 *132:23 *200:59 6.15997e-06
27 *132:25 *999:A2 3.4596e-05
28 *132:25 *184:38 4.07478e-05
29 *132:25 *184:47 0.00164298
30 *954:A2 *997:A2 0.000803879
31 *956:B *997:A2 0.000783702
32 *1086:D *998:A2 7.17651e-05
33 *1086:D *132:19 0.00108642
34 *1086:D *132:23 9.7618e-05
35 *1087:D *997:A2 0.000238516
36 *1097:I *997:A2 1.27019e-05
37 *1098:I *995:A3 1.09428e-05
38 *1098:I *997:A2 0.000425026
39 *1098:I *132:8 3.99408e-05
40 *1098:I *132:25 0.00034061
41 *83:12 *997:A2 2.80993e-05
42 *103:16 *997:A2 1.06742e-05
*RES
1 *994:Z *132:8 8.452 
2 *132:8 *995:A3 5.228 
3 *132:8 *132:19 7.308 
4 *132:19 *132:23 5.228 
5 *132:23 *132:25 4.472 
6 *132:25 *997:A2 21.3 
7 *132:25 *996:B1 4.5 
8 *132:23 *999:A3 4.5 
9 *132:19 *998:A2 12.12 
*END

*D_NET *133 0.00362359
*CONN
*I *997:B I *D gf180mcu_fd_sc_mcu7t5v0__aoi21_1
*I *996:ZN O *D gf180mcu_fd_sc_mcu7t5v0__oai221_1
*CAP
1 *997:B 0.000391067
2 *996:ZN 0.000391067
3 *954:A1 *997:B 1.12327e-05
4 *956:B *997:B 0.000190756
5 *996:A1 *997:B 0.000904652
6 *996:A2 *997:B 0
7 *996:C *997:B 0.000671892
8 *1098:I *997:B 5.89482e-05
9 *103:16 *997:B 0.00100398
*RES
1 *996:ZN *997:B 15.344 
*END

*D_NET *134 0.00138392
*CONN
*I *1000:A2 I *D gf180mcu_fd_sc_mcu7t5v0__nor3_1
*I *998:ZN O *D gf180mcu_fd_sc_mcu7t5v0__aoi21_1
*CAP
1 *1000:A2 0.000654202
2 *998:ZN 0.000654202
3 *1000:A2 *1000:A3 0
4 *1000:A2 *1088:RN 0
5 *1000:A2 *1088:CLK 7.55189e-05
*RES
1 *998:ZN *1000:A2 22.576 
*END

*D_NET *135 0.00188634
*CONN
*I *1000:A3 I *D gf180mcu_fd_sc_mcu7t5v0__nor3_1
*I *999:Z O *D gf180mcu_fd_sc_mcu7t5v0__and3_1
*CAP
1 *1000:A3 0.000464853
2 *999:Z 0.000464853
3 *1000:A3 *931:A2 5.02618e-05
4 *1000:A3 *1088:CLK 0.000111423
5 *1000:A3 *200:59 8.58959e-05
6 *1000:A2 *1000:A3 0
7 *1086:D *1000:A3 0.000139081
8 *1088:D *1000:A3 0.000569975
*RES
1 *999:Z *1000:A3 13.368 
*END

*D_NET *136 0.00584972
*CONN
*I *1020:A1 I *D gf180mcu_fd_sc_mcu7t5v0__and4_1
*I *1056:A2 I *D gf180mcu_fd_sc_mcu7t5v0__oai211_1
*I *1001:ZN O *D gf180mcu_fd_sc_mcu7t5v0__nand2_1
*CAP
1 *1020:A1 0.000247755
2 *1056:A2 0.00023138
3 *1001:ZN 0.000479135
4 *1020:A1 *1003:A1 6.18411e-06
5 *1020:A1 *1022:A1 0.00114266
6 *1020:A1 *145:14 0.000343529
7 *1020:A1 *177:21 3.4596e-05
8 *1020:A1 *178:25 0.00193713
9 *1056:A1 *1056:A2 0.000208806
10 *38:25 *1056:A2 2.76367e-05
11 *38:36 *1056:A2 0.000156424
12 *39:26 *1020:A1 0.000269264
13 *39:32 *1056:A2 4.91818e-05
14 *74:14 *1020:A1 0.000419265
15 *74:14 *1056:A2 0.000256285
16 *75:15 *1020:A1 4.04794e-05
*RES
1 *1001:ZN *1056:A2 20.496 
2 *1001:ZN *1020:A1 24.448 
*END

*D_NET *137 0.000488801
*CONN
*I *1004:B1 I *D gf180mcu_fd_sc_mcu7t5v0__aoi22_1
*I *1002:ZN O *D gf180mcu_fd_sc_mcu7t5v0__nand2_1
*CAP
1 *1004:B1 0.000115715
2 *1002:ZN 0.000115715
3 *1004:B1 *1004:B2 5.45754e-05
4 *1002:A1 *1004:B1 0.000202797
*RES
1 *1002:ZN *1004:B1 10.456 
*END

*D_NET *138 0.000878713
*CONN
*I *1004:B2 I *D gf180mcu_fd_sc_mcu7t5v0__aoi22_1
*I *1003:ZN O *D gf180mcu_fd_sc_mcu7t5v0__aoi211_1
*CAP
1 *1004:B2 0.000248776
2 *1003:ZN 0.000248776
3 *1004:B2 *1002:A2 3.3698e-05
4 *1004:B2 *1003:A1 3.4596e-05
5 *1002:A1 *1004:B2 0
6 *1003:C *1004:B2 0.000104542
7 *1004:B1 *1004:B2 5.45754e-05
8 *1007:A3 *1004:B2 4.49307e-05
9 *40:54 *1004:B2 0.00010882
*RES
1 *1003:ZN *1004:B2 11.704 
*END

*D_NET *139 0.00343995
*CONN
*I *1006:A2 I *D gf180mcu_fd_sc_mcu7t5v0__nand2_1
*I *1012:B I *D gf180mcu_fd_sc_mcu7t5v0__aoi21_1
*I *1005:ZN O *D gf180mcu_fd_sc_mcu7t5v0__aoi211_1
*CAP
1 *1006:A2 0.000114124
2 *1012:B 0.000199204
3 *1005:ZN 0.000117862
4 *139:10 0.00043119
5 *1006:A2 *241:38 0.000112376
6 *1006:A2 *241:44 2.80993e-05
7 *1012:B *925:I 4.67771e-06
8 *1012:B *1012:A2 1.71324e-06
9 *1012:B *146:18 4.5609e-05
10 *139:10 *1005:C 0.000639166
11 *139:10 *241:44 0.000118062
12 *1006:A1 *1006:A2 0.000147017
13 *1058:D *1006:A2 0.00014353
14 *1058:D *1012:B 2.14739e-05
15 *1058:D *139:10 0.000441747
16 *1137:I *1012:B 0.000229573
17 *1137:I *139:10 0.000579191
18 *38:16 *139:10 6.53324e-05
*RES
1 *1005:ZN *139:10 12.328 
2 *139:10 *1012:B 10.768 
3 *139:10 *1006:A2 10.56 
*END

*D_NET *140 0.00183741
*CONN
*I *1019:A1 I *D gf180mcu_fd_sc_mcu7t5v0__aoi21_1
*I *1006:ZN O *D gf180mcu_fd_sc_mcu7t5v0__nand2_1
*CAP
1 *1019:A1 0.000506247
2 *1006:ZN 0.000506247
3 *1019:A1 *1012:A2 0.000130286
4 *1019:A1 *146:18 0.000288421
5 *1019:A1 *237:8 0.000327211
6 *1006:A1 *1019:A1 2.38656e-05
7 *1058:D *1019:A1 5.5133e-05
*RES
1 *1006:ZN *1019:A1 13.472 
*END

*D_NET *141 0.00236252
*CONN
*I *1011:B I *D gf180mcu_fd_sc_mcu7t5v0__oai31_1
*I *1007:ZN O *D gf180mcu_fd_sc_mcu7t5v0__nor3_1
*CAP
1 *1011:B 0.000460342
2 *1007:ZN 0.000460342
3 *1011:B *1003:A2 0.000113027
4 *1011:B *1011:A2 0
5 *1011:B *1027:A1 0
6 *1011:B *1072:RN 0
7 *1011:B *1135:I 5.37778e-05
8 *1011:B *233:10 0.00124134
9 *1007:A1 *1011:B 3.3698e-05
*RES
1 *1007:ZN *1011:B 14.2 
*END

*D_NET *142 0.00373337
*CONN
*I *1011:A1 I *D gf180mcu_fd_sc_mcu7t5v0__oai31_1
*I *1027:A1 I *D gf180mcu_fd_sc_mcu7t5v0__oai31_1
*I *1050:A1 I *D gf180mcu_fd_sc_mcu7t5v0__oai32_1
*I *1008:Z O *D gf180mcu_fd_sc_mcu7t5v0__xor2_1
*CAP
1 *1011:A1 0.000113776
2 *1027:A1 6.59388e-05
3 *1050:A1 0.000176263
4 *1008:Z 0.000157484
5 *142:21 0.000284254
6 *142:10 0.000438286
7 *1011:A1 *1011:A2 0.000134833
8 *1011:A1 *1072:RN 0
9 *1011:A1 *233:10 7.17602e-05
10 *1011:A1 *233:14 1.57479e-05
11 *1027:A1 *233:14 5.13977e-05
12 *1050:A1 *1050:A2 0.000341936
13 *1050:A1 *143:15 0.000232194
14 *1050:A1 *233:14 0.000119004
15 *142:10 *922:I 0.000227415
16 *142:10 *1069:RN 0.000728808
17 *142:10 *201:8 0
18 *142:21 *1011:A2 3.42651e-05
19 *142:21 *143:15 0.000488468
20 *142:21 *233:14 5.15433e-05
21 *1011:B *1027:A1 0
22 *76:16 *1050:A1 0
*RES
1 *1008:Z *142:10 15.892 
2 *142:10 *1050:A1 6.996 
3 *142:10 *142:21 1.56 
4 *142:21 *1027:A1 5.332 
5 *142:21 *1011:A1 5.852 
*END

*D_NET *143 0.00245517
*CONN
*I *1011:A2 I *D gf180mcu_fd_sc_mcu7t5v0__oai31_1
*I *1027:A2 I *D gf180mcu_fd_sc_mcu7t5v0__oai31_1
*I *1050:A2 I *D gf180mcu_fd_sc_mcu7t5v0__oai32_1
*I *1009:Z O *D gf180mcu_fd_sc_mcu7t5v0__and2_1
*CAP
1 *1011:A2 0.00013387
2 *1027:A2 0
3 *1050:A2 0.000166173
4 *1009:Z 0
5 *143:15 0.000287765
6 *143:4 0.000320068
7 *1011:A2 *1009:A1 2.36218e-05
8 *1011:A2 *1011:A3 3.26676e-05
9 *1011:A2 *1027:A3 0.000127131
10 *1011:A2 *144:19 2.73715e-06
11 *143:15 *1009:A1 5.55518e-05
12 *1009:A2 *1050:A2 5.61634e-05
13 *1010:A2 *143:15 7.18755e-06
14 *1011:A1 *1011:A2 0.000134833
15 *1011:B *1011:A2 0
16 *1050:A1 *1050:A2 0.000341936
17 *1050:A1 *143:15 0.000232194
18 *76:16 *1050:A2 2.73715e-06
19 *76:45 *1050:A2 7.11798e-06
20 *76:45 *143:15 6.8199e-07
21 *142:21 *1011:A2 3.42651e-05
22 *142:21 *143:15 0.000488468
*RES
1 *1009:Z *143:4 4.5 
2 *143:4 *1050:A2 6.372 
3 *143:4 *143:15 1.976 
4 *143:15 *1027:A2 4.5 
5 *143:15 *1011:A2 6.268 
*END

*D_NET *144 0.0028951
*CONN
*I *1011:A3 I *D gf180mcu_fd_sc_mcu7t5v0__oai31_1
*I *1027:A3 I *D gf180mcu_fd_sc_mcu7t5v0__oai31_1
*I *1050:A3 I *D gf180mcu_fd_sc_mcu7t5v0__oai32_1
*I *1010:ZN O *D gf180mcu_fd_sc_mcu7t5v0__oai21_1
*CAP
1 *1011:A3 5.83845e-05
2 *1027:A3 0.000119353
3 *1050:A3 0.000105714
4 *1010:ZN 0
5 *144:19 0.00035793
6 *144:4 0.000285906
7 *1011:A3 *1072:RN 1.63326e-05
8 *1050:A3 *1072:RN 8.02494e-05
9 *1050:A3 *239:76 0.000548443
10 *144:19 *1009:A1 9.32019e-05
11 *144:19 *1010:A1 0.000113016
12 *144:19 *1072:RN 0.000114711
13 *1010:A2 *1050:A3 0.000557671
14 *1011:A2 *1011:A3 3.26676e-05
15 *1011:A2 *1027:A3 0.000127131
16 *1011:A2 *144:19 2.73715e-06
17 *76:16 *1050:A3 3.4596e-05
18 *76:45 *1050:A3 0.000247057
*RES
1 *1010:ZN *144:4 4.5 
2 *144:4 *1050:A3 6.684 
3 *144:4 *144:19 2.08 
4 *144:19 *1027:A3 5.332 
5 *144:19 *1011:A3 5.02 
*END

*D_NET *145 0.00852087
*CONN
*I *1020:A2 I *D gf180mcu_fd_sc_mcu7t5v0__and4_1
*I *1023:A1 I *D gf180mcu_fd_sc_mcu7t5v0__and4_1
*I *1013:A1 I *D gf180mcu_fd_sc_mcu7t5v0__nand2_1
*I *1018:A1 I *D gf180mcu_fd_sc_mcu7t5v0__nand3_1
*I *1011:ZN O *D gf180mcu_fd_sc_mcu7t5v0__oai31_1
*CAP
1 *1020:A2 0
2 *1023:A1 0.000102302
3 *1013:A1 0
4 *1018:A1 9.23522e-05
5 *1011:ZN 0.00268371
6 *145:20 0.000293881
7 *145:16 0.000351518
8 *145:14 0.0027314
9 *1018:A1 *1013:A2 0.000346997
10 *1018:A1 *1020:A4 0
11 *1018:A1 *146:50 0
12 *1023:A1 *1020:A4 0.000113027
13 *1023:A1 *1023:A2 0.000538444
14 *1023:A1 *146:50 0.000113027
15 *1023:A1 *147:8 8.52736e-05
16 *145:14 *1020:A4 0.000291066
17 *145:14 *226:14 0
18 *145:14 *240:118 0
19 *145:16 *1020:A4 0.000155298
20 *145:20 *1013:A2 2.9156e-05
21 *145:20 *1020:A4 0.000116476
22 *145:20 *146:50 6.47531e-05
23 *1020:A1 *145:14 0.000343529
24 *75:15 *145:14 1.21767e-05
25 *75:19 *145:14 3.20057e-06
26 *75:19 *145:16 8.95428e-06
27 *75:19 *145:20 4.43387e-05
*RES
1 *1011:ZN *145:14 35.68 
2 *145:14 *145:16 0.52 
3 *145:16 *145:20 6.268 
4 *145:20 *1018:A1 5.436 
5 *145:20 *1013:A1 4.5 
6 *145:16 *1023:A1 10.768 
7 *145:14 *1020:A2 9 
*END

*D_NET *146 0.00617315
*CONN
*I *1023:A2 I *D gf180mcu_fd_sc_mcu7t5v0__and4_1
*I *1020:A3 I *D gf180mcu_fd_sc_mcu7t5v0__and4_1
*I *1013:A2 I *D gf180mcu_fd_sc_mcu7t5v0__nand2_1
*I *1018:A2 I *D gf180mcu_fd_sc_mcu7t5v0__nand3_1
*I *1012:ZN O *D gf180mcu_fd_sc_mcu7t5v0__aoi21_1
*CAP
1 *1023:A2 5.18007e-05
2 *1020:A3 0
3 *1013:A2 0.000131751
4 *1018:A2 0
5 *1012:ZN 0.000555137
6 *146:50 0.000330917
7 *146:27 0.000444357
8 *146:18 0.000588628
9 *1013:A2 *1019:A2 4.17612e-05
10 *1023:A2 *1017:A2 0.000148768
11 *146:18 *1012:A2 8.85482e-05
12 *146:18 *1017:A1 0
13 *146:18 *1019:A2 8.18002e-05
14 *146:18 *226:8 0
15 *146:18 *237:8 0.000327211
16 *146:18 *240:8 0.000325803
17 *146:27 *1017:A1 0
18 *146:50 *1017:A1 1.07369e-05
19 *146:50 *1017:A2 0.000143528
20 *146:50 *1018:A3 0.000292328
21 *146:50 *1020:A4 4.09689e-05
22 *146:50 *1023:A4 7.87395e-06
23 *146:50 *226:8 0
24 *146:50 *240:8 0
25 *146:50 *240:118 0
26 *1012:B *146:18 4.5609e-05
27 *1018:A1 *1013:A2 0.000346997
28 *1018:A1 *146:50 0
29 *1019:A1 *146:18 0.000288421
30 *1019:B *1013:A2 0.000134833
31 *1019:B *146:27 2.73715e-06
32 *1023:A1 *1023:A2 0.000538444
33 *1023:A1 *146:50 0.000113027
34 *1024:C *1023:A2 0.000194522
35 *1058:D *146:18 0.000771903
36 *1137:I *146:18 3.08293e-05
37 *145:20 *1013:A2 2.9156e-05
38 *145:20 *146:50 6.47531e-05
*RES
1 *1012:ZN *146:18 20.26 
2 *146:18 *1018:A2 4.5 
3 *146:18 *146:27 4.812 
4 *146:27 *1013:A2 10.976 
5 *146:27 *146:50 7.62 
6 *146:50 *1020:A3 4.5 
7 *146:50 *1023:A2 6.06 
*END

*D_NET *147 0.00136359
*CONN
*I *1024:A2 I *D gf180mcu_fd_sc_mcu7t5v0__aoi211_1
*I *1021:A2 I *D gf180mcu_fd_sc_mcu7t5v0__aoi211_1
*I *1013:ZN O *D gf180mcu_fd_sc_mcu7t5v0__nand2_1
*CAP
1 *1024:A2 0.000251173
2 *1021:A2 0
3 *1013:ZN 0.000225785
4 *147:8 0.000476958
5 *147:8 *1020:A4 1.12327e-05
6 *147:8 *1021:B 0.000274826
7 *1019:B *147:8 0
8 *1021:C *147:8 2.25463e-05
9 *1023:A1 *147:8 8.52736e-05
10 *1024:C *1024:A2 8.27233e-06
11 *1024:C *147:8 2.39156e-06
12 *1059:D *1024:A2 0
13 *1060:D *1024:A2 5.12872e-06
*RES
1 *1013:ZN *147:8 6.788 
2 *147:8 *1021:A2 4.5 
3 *147:8 *1024:A2 6.164 
*END

*D_NET *148 0.0024895
*CONN
*I *1023:A3 I *D gf180mcu_fd_sc_mcu7t5v0__and4_1
*I *1017:A2 I *D gf180mcu_fd_sc_mcu7t5v0__nand3_1
*I *1014:ZN O *D gf180mcu_fd_sc_mcu7t5v0__nand4_1
*CAP
1 *1023:A3 0
2 *1017:A2 0.000238748
3 *1014:ZN 0.000187177
4 *148:14 0.000425925
5 *1017:A2 *1023:A4 0.000351244
6 *1017:A2 *177:21 5.34458e-06
7 *148:14 *1024:B 0
8 *148:14 *177:21 0.000336518
9 *918:I *148:14 5.82251e-05
10 *1021:A1 *148:14 8.07883e-05
11 *1023:A2 *1017:A2 0.000148768
12 *1024:C *1017:A2 0.00026679
13 *1024:C *148:14 0.000246442
14 *146:50 *1017:A2 0.000143528
*RES
1 *1014:ZN *148:14 15.892 
2 *148:14 *1017:A2 7.62 
3 *148:14 *1023:A3 4.5 
*END

*D_NET *149 0.00325995
*CONN
*I *1022:A3 I *D gf180mcu_fd_sc_mcu7t5v0__nand3_1
*I *1015:ZN O *D gf180mcu_fd_sc_mcu7t5v0__nand2_1
*CAP
1 *1022:A3 0.000138356
2 *1015:ZN 0.000138356
3 *1022:A3 *178:25 0.00111763
4 *1022:A3 *178:38 0.000475761
5 *39:12 *1022:A3 0.000272209
6 *39:20 *1022:A3 0.00111763
*RES
1 *1015:ZN *1022:A3 13.368 
*END

*D_NET *150 0.00185214
*CONN
*I *1020:A4 I *D gf180mcu_fd_sc_mcu7t5v0__and4_1
*I *1017:A3 I *D gf180mcu_fd_sc_mcu7t5v0__nand3_1
*I *1016:ZN O *D gf180mcu_fd_sc_mcu7t5v0__nand4_1
*CAP
1 *1020:A4 0.000188759
2 *1017:A3 2.83909e-05
3 *1016:ZN 0
4 *150:4 0.00021715
5 *1017:A3 *1022:A1 0.000337769
6 *1017:A3 *1023:A4 0.000337769
7 *1020:A4 *1018:A3 1.42358e-05
8 *1020:A4 *226:14 0
9 *1018:A1 *1020:A4 0
10 *1019:B *1020:A4 0
11 *1023:A1 *1020:A4 0.000113027
12 *145:14 *1020:A4 0.000291066
13 *145:16 *1020:A4 0.000155298
14 *145:20 *1020:A4 0.000116476
15 *146:50 *1020:A4 4.09689e-05
16 *147:8 *1020:A4 1.12327e-05
*RES
1 *1016:ZN *150:4 4.5 
2 *150:4 *1017:A3 5.436 
3 *150:4 *1020:A4 15.58 
*END

*D_NET *151 0.000433278
*CONN
*I *1018:A3 I *D gf180mcu_fd_sc_mcu7t5v0__nand3_1
*I *1017:ZN O *D gf180mcu_fd_sc_mcu7t5v0__nand3_1
*CAP
1 *1018:A3 4.89545e-05
2 *1017:ZN 4.89545e-05
3 *1018:A3 *240:118 2.88051e-05
4 *1020:A4 *1018:A3 1.42358e-05
5 *146:50 *1018:A3 0.000292328
*RES
1 *1017:ZN *1018:A3 18.936 
*END

*D_NET *152 0.000601472
*CONN
*I *1019:A2 I *D gf180mcu_fd_sc_mcu7t5v0__aoi21_1
*I *1018:ZN O *D gf180mcu_fd_sc_mcu7t5v0__nand3_1
*CAP
1 *1019:A2 0.000235073
2 *1018:ZN 0.000235073
3 *1019:A2 *240:8 7.76501e-06
4 *1013:A2 *1019:A2 4.17612e-05
5 *146:18 *1019:A2 8.18002e-05
*RES
1 *1018:ZN *1019:A2 19.768 
*END

*D_NET *153 0.000592372
*CONN
*I *1021:B I *D gf180mcu_fd_sc_mcu7t5v0__aoi211_1
*I *1020:Z O *D gf180mcu_fd_sc_mcu7t5v0__and4_1
*CAP
1 *1021:B 0.000152265
2 *1020:Z 0.000152265
3 *1019:B *1021:B 1.02007e-05
4 *1021:C *1021:B 2.81522e-06
5 *147:8 *1021:B 0.000274826
*RES
1 *1020:Z *1021:B 10.456 
*END

*D_NET *154 0.00189935
*CONN
*I *1023:A4 I *D gf180mcu_fd_sc_mcu7t5v0__and4_1
*I *1022:ZN O *D gf180mcu_fd_sc_mcu7t5v0__nand3_1
*CAP
1 *1023:A4 0.000314645
2 *1022:ZN 0.000314645
3 *1023:A4 *1017:A1 6.8808e-05
4 *1023:A4 *1022:A1 0.000250664
5 *1023:A4 *177:21 0.00020453
6 *1023:A4 *226:8 4.91701e-05
7 *1017:A2 *1023:A4 0.000351244
8 *1017:A3 *1023:A4 0.000337769
9 *146:50 *1023:A4 7.87395e-06
*RES
1 *1022:ZN *1023:A4 13.264 
*END

*D_NET *155 0.0011482
*CONN
*I *1024:B I *D gf180mcu_fd_sc_mcu7t5v0__aoi211_1
*I *1023:Z O *D gf180mcu_fd_sc_mcu7t5v0__and4_1
*CAP
1 *1024:B 0.000279032
2 *1023:Z 0.000279032
3 *1024:B *1014:A2 2.48024e-05
4 *1024:B *177:21 0.000325466
5 *1024:B *178:38 1.71326e-05
6 *1024:C *1024:B 4.12444e-06
7 *1060:D *1024:B 9.9247e-06
8 *39:12 *1024:B 1.41642e-05
9 *40:14 *1024:B 0.000194522
10 *148:14 *1024:B 0
*RES
1 *1023:Z *1024:B 11.704 
*END

*D_NET *156 0.01033
*CONN
*I *1028:A1 I *D gf180mcu_fd_sc_mcu7t5v0__nand2_1
*I *1039:S I *D gf180mcu_fd_sc_mcu7t5v0__mux2_2
*I *1136:I I *D gf180mcu_fd_sc_mcu7t5v0__buf_2
*I *1045:A2 I *D gf180mcu_fd_sc_mcu7t5v0__nor2_1
*I *1037:S I *D gf180mcu_fd_sc_mcu7t5v0__mux2_2
*I *1042:A2 I *D gf180mcu_fd_sc_mcu7t5v0__nor2_1
*I *1025:ZN O *D gf180mcu_fd_sc_mcu7t5v0__nand2_1
*CAP
1 *1028:A1 0
2 *1039:S 0.00119733
3 *1136:I 0
4 *1045:A2 0
5 *1037:S 0.000252767
6 *1042:A2 2.51321e-05
7 *1025:ZN 0.000508217
8 *156:26 0.000943513
9 *156:16 0.000999072
10 *156:14 0.000410456
11 *156:12 0.00158358
12 *156:6 0.000817461
13 *1037:S *1029:I0 0
14 *1037:S *1037:I0 6.18411e-06
15 *1039:S *1039:I0 5.13977e-05
16 *1039:S *1040:I1 0
17 *1039:S *1044:I0 1.60338e-05
18 *1039:S *1046:A1 0
19 *1039:S *229:10 3.37296e-05
20 *1039:S *232:14 0
21 *1039:S *255:8 1.28462e-05
22 *1039:S *256:8 7.87395e-06
23 *1042:A2 *1043:A2 1.71326e-05
24 *156:6 *1061:SETN 0.000354865
25 *156:6 *159:8 0.000220499
26 *156:6 *239:49 0.000103933
27 *156:12 *159:8 1.71326e-05
28 *156:12 *239:49 9.49964e-05
29 *156:14 *1046:A1 0
30 *156:14 *229:10 1.60028e-05
31 *156:14 *229:14 6.40114e-06
32 *156:16 *1043:A1 0
33 *156:16 *1046:A1 0
34 *156:16 *229:14 5.43005e-05
35 *156:26 *1029:I0 0
36 *156:26 *1043:A2 0.000651448
37 *156:26 *1044:S 0.000337809
38 *156:26 *1066:CLK 5.15057e-06
39 *156:26 *1067:CLK 0.000949398
40 *156:26 *198:36 0.000403752
41 *156:26 *229:14 4.73647e-05
42 *156:26 *229:27 0.000184188
43 *1068:D *156:16 0
44 *1068:D *156:26 0
*RES
1 *1025:ZN *156:6 9.596 
2 *156:6 *156:12 6.788 
3 *156:12 *156:14 0.728 
4 *156:14 *156:16 2.392 
5 *156:16 *156:26 12.82 
6 *156:26 *1042:A2 4.812 
7 *156:26 *1037:S 6.268 
8 *156:16 *1045:A2 9 
9 *156:14 *1136:I 9 
10 *156:12 *1039:S 17.112 
11 *156:6 *1028:A1 4.5 
*END

*D_NET *157 0.00243684
*CONN
*I *1135:I I *D gf180mcu_fd_sc_mcu7t5v0__clkbuf_1
*I *1055:A2 I *D gf180mcu_fd_sc_mcu7t5v0__nand2_1
*I *1026:ZN O *D gf180mcu_fd_sc_mcu7t5v0__nor4_1
*CAP
1 *1135:I 0.00021355
2 *1055:A2 2.59991e-05
3 *1026:ZN 0.000239199
4 *157:6 0.000478748
5 *1055:A2 *1003:A2 0.00027345
6 *1055:A2 *225:10 0.000594106
7 *1135:I *1003:A2 6.18411e-06
8 *1135:I *1057:B 1.71326e-05
9 *1135:I *233:10 1.12327e-05
10 *1135:I *250:30 0
11 *157:6 *1056:B 6.13659e-05
12 *157:6 *1056:C 0.000193782
13 *157:6 *1057:A1 0.000171397
14 *157:6 *1057:B 8.42801e-05
15 *1011:B *1135:I 5.37778e-05
16 *1072:D *157:6 1.26329e-05
*RES
1 *1026:ZN *157:6 7.1 
2 *157:6 *1055:A2 15.06 
3 *157:6 *1135:I 6.164 
*END

*D_NET *158 0.000356007
*CONN
*I *1141:I I *D gf180mcu_fd_sc_mcu7t5v0__clkbuf_1
*I *1027:ZN O *D gf180mcu_fd_sc_mcu7t5v0__oai31_1
*CAP
1 *1141:I 0.000125309
2 *1027:ZN 0.000125309
3 *1141:I *1069:RN 0.000105389
*RES
1 *1027:ZN *1141:I 19.352 
*END

*D_NET *159 0.00231165
*CONN
*I *1134:I I *D gf180mcu_fd_sc_mcu7t5v0__clkbuf_3
*I *1030:S I *D gf180mcu_fd_sc_mcu7t5v0__mux2_2
*I *1028:ZN O *D gf180mcu_fd_sc_mcu7t5v0__nand2_1
*CAP
1 *1134:I 0
2 *1030:S 0.000161303
3 *1028:ZN 0.000358102
4 *159:8 0.000519405
5 *1030:S *1029:I0 0
6 *1030:S *1030:I0 0.00103521
7 *159:8 *1029:I0 0
8 *156:6 *159:8 0.000220499
9 *156:12 *159:8 1.71326e-05
*RES
1 *1028:ZN *159:8 7.412 
2 *159:8 *1030:S 16.1 
3 *159:8 *1134:I 4.5 
*END

*D_NET *160 0.000422724
*CONN
*I *1030:I1 I *D gf180mcu_fd_sc_mcu7t5v0__mux2_2
*I *1029:Z O *D gf180mcu_fd_sc_mcu7t5v0__mux2_2
*CAP
1 *1030:I1 0.000196442
2 *1029:Z 0.000196442
3 *1030:I1 *198:30 2.98389e-05
*RES
1 *1029:Z *1030:I1 10.456 
*END

*D_NET *161 0.000534195
*CONN
*I *1032:I1 I *D gf180mcu_fd_sc_mcu7t5v0__mux2_2
*I *1031:Z O *D gf180mcu_fd_sc_mcu7t5v0__mux2_2
*CAP
1 *1032:I1 0.000230931
2 *1031:Z 0.000230931
3 *1032:I1 *1029:S 0
4 *1032:I1 *1031:I1 7.87395e-06
5 *1032:I1 *1032:S 1.60338e-05
6 *1032:I1 *1034:I0 4.84242e-05
*RES
1 *1031:Z *1032:I1 10.664 
*END

*D_NET *162 0.00224841
*CONN
*I *1034:I1 I *D gf180mcu_fd_sc_mcu7t5v0__mux2_2
*I *1033:Z O *D gf180mcu_fd_sc_mcu7t5v0__mux2_2
*CAP
1 *1034:I1 0.000658702
2 *1033:Z 0.000658702
3 *1034:I1 *1033:I1 2.38773e-05
4 *1034:I1 *1065:CLK 3.22108e-05
5 *1034:I1 *1076:RN 0.000542895
6 *1034:I1 *197:20 0
7 *1034:I1 *197:22 0.000172508
8 *1063:D *1034:I1 0.000159517
*RES
1 *1033:Z *1034:I1 23.408 
*END

*D_NET *163 0.00290895
*CONN
*I *1036:I1 I *D gf180mcu_fd_sc_mcu7t5v0__mux2_2
*I *1035:Z O *D gf180mcu_fd_sc_mcu7t5v0__mux2_2
*CAP
1 *1036:I1 0.00112823
2 *1035:Z 0.00112823
3 *1036:I1 *1035:I1 7.42486e-05
4 *1036:I1 *1036:S 0
5 *1036:I1 *1038:I0 0.000263547
6 *1036:I1 *1064:CLK 0.000265501
7 *1064:D *1036:I1 4.91818e-05
8 *1065:D *1036:I1 0
*RES
1 *1035:Z *1036:I1 28.192 
*END

*D_NET *164 0.00195706
*CONN
*I *1038:I1 I *D gf180mcu_fd_sc_mcu7t5v0__mux2_2
*I *1037:Z O *D gf180mcu_fd_sc_mcu7t5v0__mux2_2
*CAP
1 *1038:I1 0.000978529
2 *1037:Z 0.000978529
3 *1038:I1 *1042:A1 0
*RES
1 *1037:Z *1038:I1 26.008 
*END

*D_NET *165 0.00198673
*CONN
*I *1040:I1 I *D gf180mcu_fd_sc_mcu7t5v0__mux2_2
*I *1039:Z O *D gf180mcu_fd_sc_mcu7t5v0__mux2_2
*CAP
1 *1040:I1 0.000690174
2 *1039:Z 0.000690174
3 *1040:I1 *1040:I0 3.90096e-05
4 *1040:I1 *1099:I 2.53976e-05
5 *1040:I1 *229:10 0.000149118
6 *1040:I1 *229:14 4.67533e-05
7 *1040:I1 *239:23 4.03728e-05
8 *1040:I1 *239:27 8.18624e-06
9 *1040:I1 *239:49 3.52824e-05
10 *1040:I1 *255:8 0.000262258
11 *1039:S *1040:I1 0
*RES
1 *1039:Z *1040:I1 23.2 
*END

*D_NET *166 0.00672721
*CONN
*I *1046:A2 I *D gf180mcu_fd_sc_mcu7t5v0__aoi21_1
*I *1043:A1 I *D gf180mcu_fd_sc_mcu7t5v0__nor2_1
*I *1041:ZN O *D gf180mcu_fd_sc_mcu7t5v0__aoi21_1
*CAP
1 *1046:A2 0
2 *1043:A1 0.000471859
3 *1041:ZN 0.000468598
4 *166:10 0.000940458
5 *1043:A1 *1029:I0 0.000702735
6 *1043:A1 *1045:A1 0.0004162
7 *1043:A1 *1046:A1 0.000208806
8 *1043:A1 *198:36 3.2098e-05
9 *166:10 *1030:I0 0.000231744
10 *166:10 *1041:B 0
11 *166:10 *1046:A1 0.000405865
12 *166:10 *1061:SETN 0.000631576
13 *166:10 *229:10 0.000970012
14 *166:10 *232:14 0.000364104
15 *166:10 *239:49 0.000193782
16 *1068:D *1043:A1 0.000689375
17 *156:16 *1043:A1 0
*RES
1 *1041:ZN *166:10 16.488 
2 *166:10 *1043:A1 14.408 
3 *166:10 *1046:A2 9 
*END

*D_NET *167 0.00331973
*CONN
*I *1043:A2 I *D gf180mcu_fd_sc_mcu7t5v0__nor2_1
*I *1042:ZN O *D gf180mcu_fd_sc_mcu7t5v0__nor2_1
*CAP
1 *1043:A2 0.000382985
2 *1042:ZN 0.000382985
3 *1043:A2 *1031:I0 0
4 *1043:A2 *1044:I0 0.000510573
5 *1043:A2 *1044:I1 0.000763541
6 *1043:A2 *1044:S 8.56628e-05
7 *1043:A2 *1067:CLK 3.89547e-05
8 *1043:A2 *1099:I 8.21644e-05
9 *1042:A2 *1043:A2 1.71326e-05
10 *1066:D *1043:A2 0.000404285
11 *156:26 *1043:A2 0.000651448
*RES
1 *1042:ZN *1043:A2 23.616 
*END

*D_NET *168 0.0016085
*CONN
*I *1044:I1 I *D gf180mcu_fd_sc_mcu7t5v0__mux2_2
*I *1043:ZN O *D gf180mcu_fd_sc_mcu7t5v0__nor2_1
*CAP
1 *1044:I1 0.000313131
2 *1043:ZN 0.000313131
3 *1044:I1 *1045:A1 0.000195837
4 *1044:I1 *1067:CLK 1.37466e-05
5 *1044:I1 *198:36 9.11271e-06
6 *1043:A2 *1044:I1 0.000763541
*RES
1 *1043:ZN *1044:I1 12.328 
*END

*D_NET *169 0.000791885
*CONN
*I *1046:B I *D gf180mcu_fd_sc_mcu7t5v0__aoi21_1
*I *1045:ZN O *D gf180mcu_fd_sc_mcu7t5v0__nor2_1
*CAP
1 *1046:B 0.000181696
2 *1045:ZN 0.000181696
3 *1046:B *1029:I0 0.000428493
*RES
1 *1045:ZN *1046:B 10.872 
*END

*D_NET *170 0.000251629
*CONN
*I *1048:I I *D gf180mcu_fd_sc_mcu7t5v0__clkinv_1
*I *1047:Z O *D gf180mcu_fd_sc_mcu7t5v0__mux2_2
*CAP
1 *1048:I 0.000108211
2 *1047:Z 0.000108211
3 *1048:I *232:14 3.52062e-05
*RES
1 *1047:Z *1048:I 19.144 
*END

*D_NET *171 0.000966718
*CONN
*I *1052:A2 I *D gf180mcu_fd_sc_mcu7t5v0__aoi21_1
*I *1054:B2 I *D gf180mcu_fd_sc_mcu7t5v0__oai22_1
*I *1049:Z O *D gf180mcu_fd_sc_mcu7t5v0__or2_1
*CAP
1 *1052:A2 0
2 *1054:B2 0.000180348
3 *1049:Z 0.000180261
4 *171:10 0.000360609
5 *1054:B2 *1054:A2 0
6 *1054:B2 *1054:B1 9.41008e-05
7 *171:10 *1054:A2 0
8 *1052:A1 *171:10 0.000151399
9 *1070:D *1054:B2 0
*RES
1 *1049:Z *171:10 6.268 
2 *171:10 *1054:B2 5.852 
3 *171:10 *1052:A2 4.5 
*END

*D_NET *172 0.000489828
*CONN
*I *1051:A2 I *D gf180mcu_fd_sc_mcu7t5v0__and2_1
*I *1050:ZN O *D gf180mcu_fd_sc_mcu7t5v0__oai32_1
*CAP
1 *1051:A2 0.000134461
2 *1050:ZN 0.000134461
3 *1051:A2 *1051:A1 0.000122256
4 *1051:A2 *239:76 0
5 *1050:B2 *1051:A2 9.76253e-05
6 *76:16 *1051:A2 1.02299e-06
*RES
1 *1050:ZN *1051:A2 10.144 
*END

*D_NET *173 0.00113087
*CONN
*I *1054:A2 I *D gf180mcu_fd_sc_mcu7t5v0__oai22_1
*I *1052:B I *D gf180mcu_fd_sc_mcu7t5v0__aoi21_1
*I *1051:Z O *D gf180mcu_fd_sc_mcu7t5v0__and2_1
*CAP
1 *1054:A2 0.000179314
2 *1052:B 6.63e-05
3 *1051:Z 0.000139072
4 *173:8 0.000384686
5 *1052:B *1054:B1 4.427e-05
6 *1054:A2 *1054:B1 6.3537e-05
7 *1054:A2 *239:76 1.09486e-05
8 *173:8 *239:76 3.60231e-05
9 *1052:A1 *1052:B 6.85302e-05
10 *1052:A1 *173:8 1.29379e-05
11 *1053:A2 *1054:A2 0.000125251
12 *1054:B2 *1054:A2 0
13 *171:10 *1054:A2 0
*RES
1 *1051:Z *173:8 5.644 
2 *173:8 *1052:B 5.644 
3 *173:8 *1054:A2 6.476 
*END

*D_NET *174 0.000619
*CONN
*I *1054:B1 I *D gf180mcu_fd_sc_mcu7t5v0__oai22_1
*I *1053:ZN O *D gf180mcu_fd_sc_mcu7t5v0__nand2_1
*CAP
1 *1054:B1 0.000208546
2 *1053:ZN 0.000208546
3 *1052:B *1054:B1 4.427e-05
4 *1054:A2 *1054:B1 6.3537e-05
5 *1054:B2 *1054:B1 9.41008e-05
*RES
1 *1053:ZN *1054:B1 11.08 
*END

*D_NET *175 0.00334149
*CONN
*I *1056:B I *D gf180mcu_fd_sc_mcu7t5v0__oai211_1
*I *1057:A2 I *D gf180mcu_fd_sc_mcu7t5v0__oai21_1
*I *1055:ZN O *D gf180mcu_fd_sc_mcu7t5v0__nand2_1
*CAP
1 *1056:B 0.000430143
2 *1057:A2 6.56424e-05
3 *1055:ZN 0.000109098
4 *175:6 0.000604883
5 *1056:B *1056:C 3.48294e-05
6 *1057:A2 *1057:A1 2.14739e-05
7 *1026:A2 *1056:B 0.00027292
8 *1026:A4 *1056:B 0.000338898
9 *1072:D *1056:B 0.000419265
10 *1072:D *1057:A2 0.000113027
11 *39:32 *1056:B 0.000185295
12 *39:34 *1056:B 0.000339262
13 *40:69 *1056:B 0.000345387
14 *157:6 *1056:B 6.13659e-05
*RES
1 *1055:ZN *175:6 5.436 
2 *175:6 *1057:A2 5.02 
3 *175:6 *1056:B 18.596 
*END

*D_NET *176 0.0029662
*CONN
*I *1057:B I *D gf180mcu_fd_sc_mcu7t5v0__oai21_1
*I *1056:ZN O *D gf180mcu_fd_sc_mcu7t5v0__oai211_1
*CAP
1 *1057:B 0.000238036
2 *1056:ZN 0.000238036
3 *1057:B *1003:A2 3.18325e-05
4 *1057:B *1056:C 0.00109786
5 *1007:A1 *1057:B 0.00118379
6 *1135:I *1057:B 1.71326e-05
7 *74:14 *1057:B 7.52298e-05
8 *157:6 *1057:B 8.42801e-05
*RES
1 *1056:ZN *1057:B 13.576 
*END

*D_NET *177 0.00520864
*CONN
*I *1016:A1 I *D gf180mcu_fd_sc_mcu7t5v0__nand4_1
*I *1022:A1 I *D gf180mcu_fd_sc_mcu7t5v0__nand3_1
*I *1024:A1 I *D gf180mcu_fd_sc_mcu7t5v0__aoi211_1
*I *918:ZN O *D gf180mcu_fd_sc_mcu7t5v0__clkinv_1
*CAP
1 *1016:A1 0
2 *1022:A1 0.000191576
3 *1024:A1 0
4 *918:ZN 9.45349e-05
5 *177:21 0.000499083
6 *177:8 0.000402042
7 *177:21 *178:38 0.00021333
8 *918:I *177:8 0.000447626
9 *918:I *177:21 0.000583405
10 *1017:A2 *177:21 5.34458e-06
11 *1017:A3 *1022:A1 0.000337769
12 *1020:A1 *1022:A1 0.00114266
13 *1020:A1 *177:21 3.4596e-05
14 *1021:A1 *177:8 6.97265e-05
15 *1021:A1 *177:21 2.56152e-05
16 *1023:A4 *1022:A1 0.000250664
17 *1023:A4 *177:21 0.00020453
18 *1024:B *177:21 0.000325466
19 *1024:C *177:21 8.1598e-06
20 *39:26 *1022:A1 3.59901e-05
21 *148:14 *177:21 0.000336518
*RES
1 *918:ZN *177:8 10.144 
2 *177:8 *1024:A1 9 
3 *177:8 *177:21 8.868 
4 *177:21 *1022:A1 8.452 
5 *177:21 *1016:A1 4.5 
*END

*D_NET *178 0.00788138
*CONN
*I *1014:A2 I *D gf180mcu_fd_sc_mcu7t5v0__nand4_1
*I *1015:A1 I *D gf180mcu_fd_sc_mcu7t5v0__nand2_1
*I *1016:A2 I *D gf180mcu_fd_sc_mcu7t5v0__nand4_1
*I *1003:A1 I *D gf180mcu_fd_sc_mcu7t5v0__aoi211_1
*I *919:ZN O *D gf180mcu_fd_sc_mcu7t5v0__clkinv_1
*CAP
1 *1014:A2 0.00010068
2 *1015:A1 0
3 *1016:A2 0
4 *1003:A1 0.00041746
5 *919:ZN 0
6 *178:38 0.000263867
7 *178:25 0.000622131
8 *178:4 0.000876405
9 *1001:A2 *1003:A1 3.03748e-05
10 *1001:A2 *178:25 0
11 *1003:C *1003:A1 1.56624e-05
12 *1004:B2 *1003:A1 3.4596e-05
13 *1007:A2 *1003:A1 0.000357435
14 *1007:A3 *1003:A1 0.000194511
15 *1014:A1 *178:38 6.18411e-06
16 *1020:A1 *1003:A1 6.18411e-06
17 *1020:A1 *178:25 0.00193713
18 *1022:A3 *178:25 0.00111763
19 *1022:A3 *178:38 0.000475761
20 *1024:B *1014:A2 2.48024e-05
21 *1024:B *178:38 1.71326e-05
22 *38:51 *1003:A1 1.07369e-05
23 *38:75 *1003:A1 0.000252255
24 *39:12 *1014:A2 0.000267863
25 *39:12 *178:38 5.96514e-05
26 *39:20 *178:25 5.89482e-05
27 *40:45 *1003:A1 0.000138366
28 *40:45 *178:25 2.63349e-05
29 *40:54 *1003:A1 0.000285661
30 *40:54 *178:25 0
31 *40:65 *1003:A1 2.18955e-05
32 *74:14 *1003:A1 1.36858e-05
33 *74:51 *178:25 3.46946e-05
34 *177:21 *178:38 0.00021333
*RES
1 *919:ZN *178:4 4.5 
2 *178:4 *1003:A1 17.764 
3 *178:4 *178:25 6.552 
4 *178:25 *1016:A2 4.5 
5 *178:25 *178:38 2.704 
6 *178:38 *1015:A1 4.5 
7 *178:38 *1014:A2 5.54 
*END

*D_NET *179 0.0125258
*CONN
*I *958:A1 I *D gf180mcu_fd_sc_mcu7t5v0__xnor2_1
*I *964:A1 I *D gf180mcu_fd_sc_mcu7t5v0__nand4_1
*I *960:A1 I *D gf180mcu_fd_sc_mcu7t5v0__and3_1
*I *961:A1 I *D gf180mcu_fd_sc_mcu7t5v0__aoi21_1
*I *957:A1 I *D gf180mcu_fd_sc_mcu7t5v0__nor2_1
*I *943:A2 I *D gf180mcu_fd_sc_mcu7t5v0__xor2_1
*I *1073:Q O *D gf180mcu_fd_sc_mcu7t5v0__dffrnq_1
*CAP
1 *958:A1 4.9765e-05
2 *964:A1 0.000192542
3 *960:A1 0
4 *961:A1 0
5 *957:A1 0.00038003
6 *943:A2 0
7 *1073:Q 0.000400802
8 *179:54 0.000286063
9 *179:45 0.000130616
10 *179:38 0.000742917
11 *179:14 0.00106266
12 *179:8 0.00173949
13 *957:A1 *943:A1 0.000113016
14 *957:A1 *957:A2 0.000296241
15 *957:A1 *197:83 0
16 *958:A1 *959:A1 0
17 *958:A1 *186:10 0.000486458
18 *958:A1 *187:25 0.000274703
19 *964:A1 *933:A1 3.48292e-05
20 *964:A1 *964:A2 0.000563899
21 *964:A1 *964:A4 0
22 *964:A1 *186:10 0.000107648
23 *964:A1 *187:25 0.00019118
24 *964:A1 *230:32 0.000569964
25 *179:8 *1073:RN 1.54687e-05
26 *179:8 *238:105 0
27 *179:14 *939:A1 0.000257506
28 *179:14 *943:A1 7.96024e-05
29 *179:14 *957:A2 0
30 *179:14 *197:83 2.38865e-05
31 *179:14 *230:49 0
32 *179:38 *939:A1 0.000272556
33 *179:38 *961:A2 1.71326e-05
34 *179:38 *964:A2 0
35 *179:38 *187:25 1.12327e-05
36 *179:38 *188:10 0
37 *179:38 *230:38 0.00108054
38 *179:38 *230:49 0
39 *179:45 *961:A2 0.00029494
40 *179:45 *187:25 0.000116566
41 *179:54 *960:A3 1.07369e-05
42 *179:54 *964:A2 1.78817e-06
43 *179:54 *187:25 1.40331e-05
44 *962:A3 *179:38 3.85899e-05
45 *965:A2 *179:38 0.000334711
46 *1073:D *957:A1 0.000436398
47 *1079:D *179:14 0.00139558
48 *109:12 *179:38 0.000501766
*RES
1 *1073:Q *179:8 11.392 
2 *179:8 *179:14 11.364 
3 *179:14 *943:A2 4.5 
4 *179:14 *957:A1 8.868 
5 *179:8 *179:38 12.82 
6 *179:38 *961:A1 4.5 
7 *179:38 *179:45 1.352 
8 *179:45 *960:A1 4.5 
9 *179:45 *179:54 4.812 
10 *179:54 *964:A1 12.12 
11 *179:54 *958:A1 10.352 
*END

*D_NET *180 0.01004
*CONN
*I *938:A2 I *D gf180mcu_fd_sc_mcu7t5v0__xnor2_1
*I *984:A1 I *D gf180mcu_fd_sc_mcu7t5v0__nor2_1
*I *985:A1 I *D gf180mcu_fd_sc_mcu7t5v0__and2_1
*I *987:A1 I *D gf180mcu_fd_sc_mcu7t5v0__aoi21_1
*I *988:A3 I *D gf180mcu_fd_sc_mcu7t5v0__nand4_1
*I *1083:Q O *D gf180mcu_fd_sc_mcu7t5v0__dffrnq_1
*CAP
1 *938:A2 0.000205492
2 *984:A1 9.62834e-05
3 *985:A1 0.000249117
4 *987:A1 2.79475e-05
5 *988:A3 0.000313398
6 *1083:Q 1.43175e-05
7 *180:16 0.000520995
8 *180:12 0.000448985
9 *180:10 0.000171723
10 *180:8 0.00027503
11 *938:A2 *938:A1 0.000334894
12 *938:A2 *1083:RN 3.4596e-05
13 *938:A2 *199:44 0.000134645
14 *985:A1 *986:A1 6.64873e-05
15 *985:A1 *193:10 0
16 *987:A1 *987:B 0.000103788
17 *987:A1 *1084:RN 5.63044e-06
18 *988:A3 *982:A1 0
19 *988:A3 *987:B 0.000203364
20 *988:A3 *988:A4 4.18042e-05
21 *988:A3 *1084:RN 4.91701e-05
22 *988:A3 *181:10 0.000554584
23 *988:A3 *194:12 7.87395e-06
24 *180:8 *231:23 0.000309504
25 *180:8 *240:48 0.000355296
26 *180:10 *199:48 0.000720376
27 *180:10 *231:23 0.0021415
28 *180:10 *240:48 0.000107648
29 *180:10 *240:61 3.94674e-05
30 *180:12 *231:23 0.000225489
31 *180:16 *990:A1 0.000259344
32 *180:16 *199:52 3.99951e-05
33 *180:16 *231:23 0.00019369
34 *985:A2 *985:A1 6.32149e-05
35 *986:A2 *984:A1 0.000245642
36 *986:A2 *985:A1 7.51586e-05
37 *1083:D *180:10 0.000283521
38 *1083:D *180:12 0.000262946
39 *1083:D *180:16 0.000116466
40 *123:12 *180:16 0.000740576
*RES
1 *1083:Q *180:8 9.936 
2 *180:8 *180:10 5.72 
3 *180:10 *180:12 0.728 
4 *180:12 *180:16 7.1 
5 *180:16 *988:A3 7.828 
6 *180:16 *987:A1 4.812 
7 *180:12 *985:A1 10.768 
8 *180:10 *984:A1 9.728 
9 *180:8 *938:A2 11.392 
*END

*D_NET *181 0.00706788
*CONN
*I *987:B I *D gf180mcu_fd_sc_mcu7t5v0__aoi21_1
*I *988:A4 I *D gf180mcu_fd_sc_mcu7t5v0__nand4_1
*I *948:A2 I *D gf180mcu_fd_sc_mcu7t5v0__xor2_1
*I *1084:Q O *D gf180mcu_fd_sc_mcu7t5v0__dffrnq_1
*CAP
1 *987:B 8.66654e-05
2 *988:A4 8.00417e-05
3 *948:A2 0.00138612
4 *1084:Q 0
5 *181:10 0.00177239
6 *181:4 0.000392899
7 *948:A2 *940:A2 8.56628e-05
8 *948:A2 *978:A1 0
9 *948:A2 *982:A1 1.13514e-05
10 *948:A2 *194:16 3.78072e-05
11 *948:A2 *230:87 0.000415433
12 *948:A2 *230:104 1.12327e-05
13 *987:B *1084:RN 3.57634e-06
14 *987:B *194:12 0.00072064
15 *988:A4 *982:A1 1.1972e-05
16 *181:10 *194:12 0.000165001
17 *181:10 *194:16 0.000186474
18 *942:A1 *948:A2 0.000497696
19 *978:A3 *948:A2 2.97009e-05
20 *987:A1 *987:B 0.000103788
21 *988:A3 *987:B 0.000203364
22 *988:A3 *988:A4 4.18042e-05
23 *988:A3 *181:10 0.000554584
24 *989:A4 *948:A2 0
25 *1080:D *948:A2 0.000181002
26 *120:18 *948:A2 0
27 *120:25 *948:A2 8.86703e-05
28 *120:36 *948:A2 0
*RES
1 *1084:Q *181:4 4.5 
2 *181:4 *181:10 3.016 
3 *181:10 *948:A2 24.212 
4 *181:10 *988:A4 5.228 
5 *181:4 *987:B 6.476 
*END

*D_NET *182 0.00417127
*CONN
*I *994:A1 I *D gf180mcu_fd_sc_mcu7t5v0__and3_1
*I *993:A1 I *D gf180mcu_fd_sc_mcu7t5v0__aoi21_1
*I *944:A2 I *D gf180mcu_fd_sc_mcu7t5v0__xor2_1
*I *991:A1 I *D gf180mcu_fd_sc_mcu7t5v0__xnor2_1
*I *1085:Q O *D gf180mcu_fd_sc_mcu7t5v0__dffrnq_1
*CAP
1 *994:A1 5.04399e-05
2 *993:A1 4.40015e-05
3 *944:A2 0.000107462
4 *991:A1 0.000136185
5 *1085:Q 0
6 *182:16 0.000573272
7 *182:10 0.000510943
8 *182:4 0.000187757
9 *944:A2 *938:A1 0
10 *944:A2 *944:A1 0
11 *944:A2 *946:A1 1.70957e-06
12 *993:A1 *993:A2 1.57479e-05
13 *993:A1 *993:B 4.75684e-05
14 *994:A1 *994:A2 0.000188241
15 *994:A1 *1085:RN 1.59524e-05
16 *182:10 *993:B 8.92045e-06
17 *182:10 *1085:RN 7.87395e-06
18 *182:16 *994:A2 9.03002e-05
19 *951:A1 *994:A1 0.000197059
20 *951:A1 *182:16 2.27302e-05
21 *951:A2 *944:A2 2.01852e-05
22 *951:A2 *991:A1 0.00020229
23 *951:A2 *182:16 0.000203436
24 *951:A4 *944:A2 0.000119524
25 *951:A4 *991:A1 0.0008879
26 *995:A2 *993:A1 1.79718e-05
27 *995:A2 *994:A1 0.000182219
28 *995:A2 *182:10 6.28158e-05
29 *25:18 *182:16 0.000268766
*RES
1 *1085:Q *182:4 4.5 
2 *182:4 *182:10 1.144 
3 *182:10 *182:16 12.224 
4 *182:16 *991:A1 6.892 
5 *182:16 *944:A2 5.436 
6 *182:10 *993:A1 5.02 
7 *182:4 *994:A1 14.54 
*END

*D_NET *183 0.00351613
*CONN
*I *993:B I *D gf180mcu_fd_sc_mcu7t5v0__aoi21_1
*I *994:A2 I *D gf180mcu_fd_sc_mcu7t5v0__and3_1
*I *946:A2 I *D gf180mcu_fd_sc_mcu7t5v0__xor2_1
*I *1086:Q O *D gf180mcu_fd_sc_mcu7t5v0__dffrnq_1
*CAP
1 *993:B 0.000197328
2 *994:A2 0.000162431
3 *946:A2 0.00010414
4 *1086:Q 0
5 *183:17 0.0006419
6 *183:4 0.000386281
7 *946:A2 *231:12 9.03002e-05
8 *993:B *946:A1 3.39799e-05
9 *993:B *1085:RN 0.000113027
10 *183:17 *995:A1 0
11 *183:17 *1085:RN 0.000723738
12 *183:17 *231:6 0
13 *951:A1 *994:A2 0.000271103
14 *993:A1 *993:B 4.75684e-05
15 *994:A1 *994:A2 0.000188241
16 *995:A2 *183:17 0
17 *25:18 *993:B 1.26329e-05
18 *25:18 *183:17 0.000444243
19 *182:10 *993:B 8.92045e-06
20 *182:16 *994:A2 9.03002e-05
*RES
1 *1086:Q *183:4 4.5 
2 *183:4 *946:A2 14.436 
3 *183:4 *183:17 3.432 
4 *183:17 *994:A2 15.684 
5 *183:17 *993:B 6.268 
*END

*D_NET *184 0.0106522
*CONN
*I *998:A1 I *D gf180mcu_fd_sc_mcu7t5v0__aoi21_1
*I *999:A1 I *D gf180mcu_fd_sc_mcu7t5v0__and3_1
*I *996:B2 I *D gf180mcu_fd_sc_mcu7t5v0__oai221_1
*I *936:A2 I *D gf180mcu_fd_sc_mcu7t5v0__xnor2_1
*I *997:A1 I *D gf180mcu_fd_sc_mcu7t5v0__aoi21_1
*I *1087:Q O *D gf180mcu_fd_sc_mcu7t5v0__dffrnq_1
*CAP
1 *998:A1 0.00048483
2 *999:A1 0.000101658
3 *996:B2 0
4 *936:A2 0
5 *997:A1 0.000382656
6 *1087:Q 0.00040395
7 *184:47 0.000853813
8 *184:38 0.000499804
9 *184:14 0.000730025
10 *184:10 0.000983798
11 *997:A1 *1087:CLK 0.000497696
12 *997:A1 *196:15 6.64924e-05
13 *998:A1 *185:14 0
14 *998:A1 *200:59 0
15 *998:A1 *241:59 0
16 *184:10 *200:8 3.56133e-05
17 *184:10 *200:39 3.53845e-05
18 *184:10 *200:43 3.21875e-05
19 *184:10 *240:16 0.000219202
20 *184:10 *241:59 4.84242e-05
21 *184:14 *936:A1 0.000102348
22 *184:14 *200:43 1.90906e-05
23 *184:14 *240:16 8.52478e-05
24 *184:38 *200:59 9.74622e-05
25 *184:47 *200:59 0.000218973
26 *954:A2 *997:A1 8.69612e-05
27 *997:A2 *997:A1 8.05274e-05
28 *997:A2 *184:38 0.00120221
29 *998:A2 *998:A1 0.000275648
30 *1086:D *998:A1 1.23478e-05
31 *1086:D *999:A1 9.52581e-05
32 *1087:D *997:A1 0.000190833
33 *1097:I *997:A1 0.000614351
34 *1098:I *184:14 0.000343529
35 *103:16 *997:A1 2.14739e-05
36 *105:22 *997:A1 2.90272e-05
37 *105:22 *184:14 8.31025e-05
38 *132:23 *184:47 3.4596e-05
39 *132:25 *184:38 4.07478e-05
40 *132:25 *184:47 0.00164298
*RES
1 *1087:Q *184:10 13.368 
2 *184:10 *184:14 7.516 
3 *184:14 *997:A1 17.764 
4 *184:14 *936:A2 4.5 
5 *184:10 *184:38 7.724 
6 *184:38 *996:B2 4.5 
7 *184:38 *184:47 8.972 
8 *184:47 *999:A1 9.728 
9 *184:47 *998:A1 13.16 
*END

*D_NET *185 0.00589668
*CONN
*I *998:B I *D gf180mcu_fd_sc_mcu7t5v0__aoi21_1
*I *931:A2 I *D gf180mcu_fd_sc_mcu7t5v0__xor2_1
*I *999:A2 I *D gf180mcu_fd_sc_mcu7t5v0__and3_1
*I *1088:Q O *D gf180mcu_fd_sc_mcu7t5v0__dffrnq_1
*CAP
1 *998:B 0
2 *931:A2 0.000746651
3 *999:A2 0.000162901
4 *1088:Q 0.000498407
5 *185:14 0.00116345
6 *185:10 0.000752305
7 *931:A2 *931:A1 2.73715e-06
8 *931:A2 *936:A1 0
9 *185:10 *1086:RN 0.000534077
10 *185:10 *1088:RN 0
11 *185:14 *1086:RN 0.00131058
12 *951:A1 *931:A2 0
13 *998:A1 *185:14 0
14 *998:A2 *185:14 0.000122457
15 *1000:A3 *931:A2 5.02618e-05
16 *1086:D *931:A2 1.07369e-05
17 *1086:D *999:A2 0.000112681
18 *1088:D *931:A2 9.52642e-05
19 *1098:I *931:A2 4.49667e-05
20 *1098:I *999:A2 2.83666e-05
21 *132:8 *931:A2 0
22 *132:19 *185:14 1.25277e-05
23 *132:23 *999:A2 0.000213721
24 *132:25 *999:A2 3.4596e-05
*RES
1 *1088:Q *185:10 13.16 
2 *185:10 *185:14 7.932 
3 *185:14 *999:A2 6.06 
4 *185:14 *931:A2 9.908 
5 *185:10 *998:B 9 
*END

*D_NET *186 0.00441772
*CONN
*I *932:A2 I *D gf180mcu_fd_sc_mcu7t5v0__xnor2_1
*I *958:A2 I *D gf180mcu_fd_sc_mcu7t5v0__xnor2_1
*I *960:A2 I *D gf180mcu_fd_sc_mcu7t5v0__and3_1
*I *961:A2 I *D gf180mcu_fd_sc_mcu7t5v0__aoi21_1
*I *964:A2 I *D gf180mcu_fd_sc_mcu7t5v0__nand4_1
*I *1074:Q O *D gf180mcu_fd_sc_mcu7t5v0__dffrnq_1
*CAP
1 *932:A2 0.000414007
2 *958:A2 0.000487691
3 *960:A2 0
4 *961:A2 0.000149965
5 *964:A2 0.000215824
6 *1074:Q 0.000145657
7 *186:23 0.000149965
8 *186:10 0.000370981
9 *186:6 0.000374498
10 *932:A2 *932:A1 0.000113016
11 *958:A2 *187:25 7.15269e-06
12 *961:A2 *187:29 4.15898e-06
13 *961:A2 *230:32 0
14 *964:A2 *933:A1 0.000185295
15 *964:A2 *960:A3 1.26446e-05
16 *964:A2 *187:29 0.000114503
17 *964:A2 *230:32 2.24654e-05
18 *186:6 *1074:RN 6.18411e-06
19 *186:6 *187:25 3.56133e-05
20 *186:10 *959:A1 0
21 *186:10 *187:12 3.21875e-05
22 *958:A1 *186:10 0.000486458
23 *959:A2 *932:A2 4.22072e-05
24 *959:A2 *958:A2 0
25 *962:A3 *961:A2 1.94441e-05
26 *964:A1 *964:A2 0.000563899
27 *964:A1 *186:10 0.000107648
28 *109:8 *961:A2 4.2398e-05
29 *179:38 *961:A2 1.71326e-05
30 *179:38 *964:A2 0
31 *179:45 *961:A2 0.00029494
32 *179:54 *964:A2 1.78817e-06
*RES
1 *1074:Q *186:6 5.436 
2 *186:6 *186:10 6.476 
3 *186:10 *964:A2 11.704 
4 *186:10 *186:23 4.5 
5 *186:23 *961:A2 6.268 
6 *186:23 *960:A2 4.5 
7 *186:6 *958:A2 5.02 
8 *958:A2 *932:A2 12.016 
*END

*D_NET *187 0.00450334
*CONN
*I *960:A3 I *D gf180mcu_fd_sc_mcu7t5v0__and3_1
*I *933:A2 I *D gf180mcu_fd_sc_mcu7t5v0__xnor2_1
*I *964:A3 I *D gf180mcu_fd_sc_mcu7t5v0__nand4_1
*I *961:B I *D gf180mcu_fd_sc_mcu7t5v0__aoi21_1
*I *1075:Q O *D gf180mcu_fd_sc_mcu7t5v0__dffrnq_1
*CAP
1 *960:A3 3.11835e-05
2 *933:A2 3.98943e-05
3 *964:A3 0
4 *961:B 0
5 *1075:Q 0.000556956
6 *187:29 0.000256785
7 *187:25 0.000582716
8 *187:12 0.000891599
9 *933:A2 *933:A1 0.000387745
10 *933:A2 *230:24 0.000500761
11 *187:12 *1074:RN 4.79815e-05
12 *187:25 *959:A1 0
13 *187:25 *964:A4 1.18566e-06
14 *187:25 *1074:RN 0
15 *187:29 *933:A1 0.000332917
16 *187:29 *230:24 4.07478e-05
17 *958:A1 *187:25 0.000274703
18 *958:A2 *187:25 7.15269e-06
19 *961:A2 *187:29 4.15898e-06
20 *962:A3 *187:29 0
21 *964:A1 *187:25 0.00019118
22 *964:A2 *960:A3 1.26446e-05
23 *964:A2 *187:29 0.000114503
24 *112:10 *933:A2 8.1598e-06
25 *179:38 *187:25 1.12327e-05
26 *179:45 *187:25 0.000116566
27 *179:54 *960:A3 1.07369e-05
28 *179:54 *187:25 1.40331e-05
29 *186:6 *187:25 3.56133e-05
30 *186:10 *187:12 3.21875e-05
*RES
1 *1075:Q *187:12 17.868 
2 *187:12 *961:B 4.5 
3 *187:12 *187:25 11.912 
4 *187:25 *187:29 2.08 
5 *187:29 *964:A3 4.5 
6 *187:29 *933:A2 5.852 
7 *187:25 *960:A3 4.812 
*END

*D_NET *188 0.00637658
*CONN
*I *939:A2 I *D gf180mcu_fd_sc_mcu7t5v0__xor2_1
*I *964:A4 I *D gf180mcu_fd_sc_mcu7t5v0__nand4_1
*I *963:A1 I *D gf180mcu_fd_sc_mcu7t5v0__and2_1
*I *965:A1 I *D gf180mcu_fd_sc_mcu7t5v0__nor2_1
*I *1076:Q O *D gf180mcu_fd_sc_mcu7t5v0__dffrnq_1
*CAP
1 *939:A2 0.000129317
2 *964:A4 0.000151041
3 *963:A1 0
4 *965:A1 6.31108e-05
5 *1076:Q 0.000582835
6 *188:30 0.000423877
7 *188:23 0.000429505
8 *188:10 0.000931931
9 *939:A2 *933:A1 0
10 *939:A2 *1075:CLK 0.000137631
11 *939:A2 *230:32 2.38773e-05
12 *964:A4 *932:A1 0
13 *964:A4 *933:A1 0.000220531
14 *964:A4 *230:32 0.000487069
15 *965:A1 *939:A1 0.000111373
16 *965:A1 *238:99 0.0006793
17 *188:10 *197:6 3.73056e-05
18 *188:10 *238:73 1.54687e-05
19 *188:10 *238:81 0
20 *188:10 *238:99 0.00070182
21 *188:23 *1075:CLK 8.94231e-05
22 *188:23 *230:32 0.000139043
23 *188:30 *1075:CLK 0.000124533
24 *188:30 *230:32 0.000125933
25 *963:A2 *188:23 0.000270995
26 *964:A1 *964:A4 0
27 *965:A2 *965:A1 0
28 *1075:D *188:23 0.000419265
29 *109:8 *188:23 8.44565e-06
30 *109:12 *965:A1 0
31 *109:12 *188:10 0
32 *112:10 *939:A2 7.17602e-05
33 *179:38 *188:10 0
34 *187:25 *964:A4 1.18566e-06
*RES
1 *1076:Q *188:10 13.992 
2 *188:10 *965:A1 10.768 
3 *188:10 *188:23 7.932 
4 *188:23 *963:A1 4.5 
5 *188:23 *188:30 1.56 
6 *188:30 *964:A4 15.476 
7 *188:30 *939:A2 6.06 
*END

*D_NET *189 0.0105086
*CONN
*I *967:A1 I *D gf180mcu_fd_sc_mcu7t5v0__xor2_1
*I *969:A1 I *D gf180mcu_fd_sc_mcu7t5v0__nand2_1
*I *971:A1 I *D gf180mcu_fd_sc_mcu7t5v0__aoi21_1
*I *941:A2 I *D gf180mcu_fd_sc_mcu7t5v0__xor2_1
*I *1077:Q O *D gf180mcu_fd_sc_mcu7t5v0__dffrnq_1
*CAP
1 *967:A1 0.00019135
2 *969:A1 0
3 *971:A1 0.000327577
4 *941:A2 0.000643371
5 *1077:Q 0.000515031
6 *189:35 0.000327577
7 *189:18 0.0015229
8 *189:8 0.00158591
9 *941:A2 *935:A2 0
10 *941:A2 *191:26 0.000113016
11 *941:A2 *191:34 0.000657162
12 *941:A2 *230:87 0.000168532
13 *967:A1 *1077:CLK 0
14 *967:A1 *199:14 1.07369e-05
15 *971:A1 *969:A2 0.000205674
16 *971:A1 *190:19 0.000104921
17 *971:A1 *230:79 0.00017298
18 *189:8 *1080:RN 0.00024467
19 *189:8 *240:16 0.000510594
20 *189:18 *1075:CLK 0.00120221
21 *189:18 *1080:RN 4.26239e-05
22 *949:A1 *941:A2 6.82261e-06
23 *949:A3 *941:A2 5.55501e-05
24 *949:A4 *941:A2 6.06196e-05
25 *950:A3 *189:8 0.000116466
26 *950:A4 *941:A2 3.48215e-05
27 *950:A4 *189:18 0.000436267
28 *967:A2 *967:A1 0.000334704
29 *968:A2 *967:A1 6.83697e-05
30 *968:A2 *189:18 0.000252443
31 *972:A3 *971:A1 1.40331e-05
32 *1097:I *189:8 1.51772e-05
33 *105:14 *189:8 2.27712e-05
34 *112:10 *189:18 6.06492e-05
35 *112:14 *189:8 7.17651e-05
36 *112:14 *189:18 0.000346468
37 *116:12 *971:A1 6.48242e-05
*RES
1 *1077:Q *189:8 14.512 
2 *189:8 *189:18 19.92 
3 *189:18 *941:A2 13.992 
4 *189:18 *189:35 4.5 
5 *189:35 *971:A1 7.308 
6 *189:35 *969:A1 4.5 
7 *189:8 *967:A1 10.664 
*END

*D_NET *190 0.00448917
*CONN
*I *969:A2 I *D gf180mcu_fd_sc_mcu7t5v0__nand2_1
*I *935:A2 I *D gf180mcu_fd_sc_mcu7t5v0__xor2_1
*I *971:B I *D gf180mcu_fd_sc_mcu7t5v0__aoi21_1
*I *1078:Q O *D gf180mcu_fd_sc_mcu7t5v0__dffrnq_1
*CAP
1 *969:A2 0.000223913
2 *935:A2 0.00041667
3 *971:B 0
4 *1078:Q 0.000177845
5 *190:19 0.000809582
6 *190:12 0.000346844
7 *935:A2 *191:34 0
8 *935:A2 *230:87 0.000136268
9 *969:A2 *975:A1 2.73715e-06
10 *190:12 *933:A1 1.53275e-05
11 *190:12 *973:A1 0.000498827
12 *190:12 *230:79 0.000397755
13 *190:19 *230:79 0.00017298
14 *941:A2 *935:A2 0
15 *949:A1 *935:A2 0.000597197
16 *949:A1 *969:A2 2.14739e-05
17 *949:A1 *190:19 1.07369e-05
18 *949:A2 *190:12 0
19 *949:A2 *190:19 1.71299e-05
20 *949:A3 *935:A2 2.05176e-05
21 *949:A3 *969:A2 1.36398e-06
22 *950:A4 *935:A2 4.58667e-05
23 *971:A1 *969:A2 0.000205674
24 *971:A1 *190:19 0.000104921
25 *974:A2 *190:12 0.000122054
26 *977:A2 *969:A2 3.02537e-06
27 *977:A2 *190:19 0
28 *1078:D *190:12 0.000140464
*RES
1 *1078:Q *190:12 16.204 
2 *190:12 *971:B 4.5 
3 *190:12 *190:19 1.352 
4 *190:19 *935:A2 16.516 
5 *190:19 *969:A2 6.372 
*END

*D_NET *191 0.00706702
*CONN
*I *945:A2 I *D gf180mcu_fd_sc_mcu7t5v0__xor2_1
*I *975:A1 I *D gf180mcu_fd_sc_mcu7t5v0__nand2_1
*I *977:A1 I *D gf180mcu_fd_sc_mcu7t5v0__aoi21_1
*I *973:A1 I *D gf180mcu_fd_sc_mcu7t5v0__xnor2_1
*I *1079:Q O *D gf180mcu_fd_sc_mcu7t5v0__dffrnq_1
*CAP
1 *945:A2 0
2 *975:A1 0.000174012
3 *977:A1 3.73881e-05
4 *973:A1 0.00121866
5 *1079:Q 0.000962061
6 *191:34 0.000708458
7 *191:26 0.000753661
8 *973:A1 *933:A1 0.000255738
9 *973:A1 *1078:RN 8.52736e-05
10 *975:A1 *977:B 0.000428493
11 *977:A1 *977:B 1.41781e-05
12 *191:26 *230:87 0.000380013
13 *935:A2 *191:34 0
14 *941:A2 *191:26 0.000113016
15 *941:A2 *191:34 0.000657162
16 *949:A1 *191:26 2.38773e-05
17 *949:A2 *973:A1 6.73542e-05
18 *949:A3 *191:26 0.000151966
19 *949:A4 *191:26 6.18411e-06
20 *969:A2 *975:A1 2.73715e-06
21 *971:A2 *973:A1 0.000171408
22 *977:A2 *973:A1 1.41781e-05
23 *977:A2 *977:A1 2.60128e-05
24 *977:A2 *191:26 3.2525e-05
25 *977:A2 *191:34 6.55629e-05
26 *978:A3 *191:34 0
27 *1078:D *973:A1 9.01564e-05
28 *115:8 *975:A1 7.86287e-05
29 *115:8 *191:34 4.85554e-06
30 *115:19 *975:A1 4.46284e-05
31 *116:12 *191:34 0
32 *190:12 *973:A1 0.000498827
*RES
1 *1079:Q *973:A1 25.592 
2 *973:A1 *191:26 7.516 
3 *191:26 *191:34 12.328 
4 *191:34 *977:A1 5.02 
5 *191:34 *975:A1 6.788 
6 *191:26 *945:A2 4.5 
*END

*D_NET *192 0.00387267
*CONN
*I *934:A2 I *D gf180mcu_fd_sc_mcu7t5v0__xor2_1
*I *975:A2 I *D gf180mcu_fd_sc_mcu7t5v0__nand2_1
*I *977:B I *D gf180mcu_fd_sc_mcu7t5v0__aoi21_1
*I *1080:Q O *D gf180mcu_fd_sc_mcu7t5v0__dffrnq_1
*CAP
1 *934:A2 0
2 *975:A2 0
3 *977:B 0.000137862
4 *1080:Q 0.000178957
5 *192:16 0.000378688
6 *192:8 0.000419783
7 *192:8 *934:A1 3.4596e-05
8 *192:16 *934:A1 0.00150081
9 *947:A1 *192:8 0
10 *975:A1 *977:B 0.000428493
11 *977:A1 *977:B 1.41781e-05
12 *978:A3 *977:B 3.1074e-05
13 *112:14 *192:16 0.000438808
14 *112:18 *192:16 0.000262946
15 *115:19 *977:B 0
16 *120:18 *192:8 3.80299e-05
17 *120:18 *192:16 8.44565e-06
*RES
1 *1080:Q *192:8 5.748 
2 *192:8 *192:16 12.952 
3 *192:16 *977:B 6.06 
4 *192:16 *975:A2 4.5 
5 *192:8 *934:A2 4.5 
*END

*D_NET *193 0.00907136
*CONN
*I *937:A2 I *D gf180mcu_fd_sc_mcu7t5v0__xor2_1
*I *982:A1 I *D gf180mcu_fd_sc_mcu7t5v0__aoi21_1
*I *979:A1 I *D gf180mcu_fd_sc_mcu7t5v0__xnor2_1
*I *981:A1 I *D gf180mcu_fd_sc_mcu7t5v0__and3_1
*I *988:A1 I *D gf180mcu_fd_sc_mcu7t5v0__nand4_1
*I *1081:Q O *D gf180mcu_fd_sc_mcu7t5v0__dffrnq_1
*CAP
1 *937:A2 0.000598056
2 *982:A1 0.00054789
3 *979:A1 0
4 *981:A1 0
5 *988:A1 0.00011506
6 *1081:Q 0.000151324
7 *193:34 0.000792012
8 *193:12 0.000306718
9 *193:10 0.000876436
10 *193:6 0.00119004
11 *982:A1 *1084:RN 3.03977e-05
12 *982:A1 *230:104 0
13 *988:A1 *981:A2 0.000569964
14 *988:A1 *990:A1 2.24654e-05
15 *988:A1 *194:12 0.000249521
16 *193:6 *1081:RN 0
17 *193:10 *1081:RN 0.000101448
18 *193:10 *194:12 5.1344e-05
19 *193:12 *990:A1 6.14482e-05
20 *193:12 *194:12 0.000172529
21 *193:34 *1084:RN 1.36398e-06
22 *193:34 *199:52 0.00109368
23 *193:34 *230:104 0
24 *193:34 *240:61 0.000397047
25 *193:34 *240:65 0.000283521
26 *948:A2 *982:A1 1.13514e-05
27 *979:A2 *982:A1 0
28 *979:A2 *193:34 6.8199e-07
29 *985:A1 *193:10 0
30 *985:A2 *193:10 3.57634e-06
31 *985:A2 *193:12 7.15269e-06
32 *986:A3 *193:10 4.91818e-05
33 *988:A3 *982:A1 0
34 *988:A4 *982:A1 1.1972e-05
35 *990:A2 *982:A1 0.00080701
36 *25:18 *937:A2 0.000188834
37 *25:18 *193:34 0
38 *120:36 *982:A1 0.000371669
39 *123:8 *193:12 7.67469e-06
*RES
1 *1081:Q *193:6 5.436 
2 *193:6 *193:10 3.536 
3 *193:10 *193:12 1.56 
4 *193:12 *988:A1 6.58 
5 *193:12 *981:A1 4.5 
6 *193:10 *193:34 12.328 
7 *193:34 *979:A1 4.5 
8 *193:34 *982:A1 9.908 
9 *193:6 *937:A2 19.636 
*END

*D_NET *194 0.00849284
*CONN
*I *988:A2 I *D gf180mcu_fd_sc_mcu7t5v0__nand4_1
*I *981:A2 I *D gf180mcu_fd_sc_mcu7t5v0__and3_1
*I *982:B I *D gf180mcu_fd_sc_mcu7t5v0__aoi21_1
*I *940:A2 I *D gf180mcu_fd_sc_mcu7t5v0__xor2_1
*I *1082:Q O *D gf180mcu_fd_sc_mcu7t5v0__dffrnq_1
*CAP
1 *988:A2 0
2 *981:A2 0.000297777
3 *982:B 0
4 *940:A2 0.000549542
5 *1082:Q 0.000439364
6 *194:18 0.00086586
7 *194:16 0.000707517
8 *194:12 0.000532785
9 *940:A2 *230:104 0.00114222
10 *194:12 *1081:RN 0.000256285
11 *194:12 *1084:RN 2.04597e-06
12 *948:A2 *940:A2 8.56628e-05
13 *948:A2 *194:16 3.78072e-05
14 *979:A2 *940:A2 2.2027e-06
15 *981:A3 *940:A2 8.25754e-06
16 *981:A3 *981:A2 0.00065789
17 *981:A3 *194:18 3.60621e-05
18 *983:A3 *940:A2 0.000176951
19 *987:B *194:12 0.00072064
20 *988:A1 *981:A2 0.000569964
21 *988:A1 *194:12 0.000249521
22 *988:A3 *194:12 7.87395e-06
23 *989:A4 *981:A2 0.000419276
24 *989:A4 *194:12 1.71326e-05
25 *989:A4 *194:16 8.28798e-05
26 *120:25 *940:A2 0
27 *129:8 *981:A2 5.19755e-05
28 *181:10 *194:12 0.000165001
29 *181:10 *194:16 0.000186474
30 *193:10 *194:12 5.1344e-05
31 *193:12 *194:12 0.000172529
*RES
1 *1082:Q *194:12 9.908 
2 *194:12 *194:16 5.644 
3 *194:16 *194:18 1.976 
4 *194:18 *940:A2 13.992 
5 *194:18 *982:B 9 
6 *194:16 *981:A2 12.952 
7 *194:12 *988:A2 4.5 
*END

*D_NET *195 0.00181891
*CONN
*I *925:I I *D gf180mcu_fd_sc_mcu7t5v0__clkinv_1
*I *1005:B I *D gf180mcu_fd_sc_mcu7t5v0__aoi211_1
*I *1089:Q O *D gf180mcu_fd_sc_mcu7t5v0__dffrnq_1
*CAP
1 *925:I 0.000496377
2 *1005:B 0
3 *1089:Q 0.000283756
4 *195:8 0.000780133
5 *925:I *1012:A2 4.67771e-06
6 *1006:A1 *925:I 9.77992e-06
7 *1012:A1 *925:I 0.000169099
8 *1012:B *925:I 4.67771e-06
9 *1058:D *925:I 0
10 *1058:D *195:8 0
11 *1137:I *925:I 6.33007e-05
12 *38:16 *925:I 7.11399e-06
13 *38:25 *925:I 0
14 *39:40 *925:I 0
15 *39:40 *195:8 0
*RES
1 *1089:Q *195:8 10.768 
2 *195:8 *1005:B 9 
3 *195:8 *925:I 12.744 
*END

*D_NET *196 0.00726483
*CONN
*I *1092:I I *D gf180mcu_fd_sc_mcu7t5v0__clkbuf_16
*I *1091:I I *D gf180mcu_fd_sc_mcu7t5v0__clkbuf_16
*I *1094:I I *D gf180mcu_fd_sc_mcu7t5v0__clkbuf_16
*I *1093:I I *D gf180mcu_fd_sc_mcu7t5v0__clkbuf_16
*I *1090:Z O *D gf180mcu_fd_sc_mcu7t5v0__clkbuf_16
*CAP
1 *1092:I 0.000161726
2 *1091:I 0.000196773
3 *1094:I 0
4 *1093:I 3.7104e-05
5 *1090:Z 0.000281852
6 *196:73 0.000185806
7 *196:68 0.000115773
8 *196:52 0.00100631
9 *196:47 0.00104329
10 *196:31 0.000119212
11 *196:19 8.95405e-05
12 *196:15 0.00111249
13 *196:6 0.00108064
14 *1093:I *936:A1 0.000116624
15 *196:15 *936:A1 3.50983e-05
16 *196:15 *1087:CLK 0.000376815
17 *196:15 *200:43 0.000107033
18 *196:19 *936:A1 0.000111423
19 *196:31 *200:43 0.000158782
20 *196:47 *1074:CLK 0
21 *196:52 *1074:CLK 0
22 *950:A1 *196:6 0
23 *950:A1 *196:15 0
24 *950:A2 *196:15 8.10143e-05
25 *953:A1 *196:15 4.91701e-05
26 *996:A2 *1093:I 0.000128915
27 *996:A2 *196:19 0.000111423
28 *997:A1 *196:15 6.64924e-05
29 *997:A2 *196:15 0
30 *1061:D *1091:I 0
31 *1061:D *1092:I 3.82428e-05
32 *1061:D *196:52 0
33 *1061:D *196:68 0
34 *1074:D *196:52 0.000414267
35 *103:16 *196:15 3.32327e-05
36 *105:14 *196:15 5.77431e-06
*RES
1 *1090:Z *196:6 5.35057 
2 *196:6 *196:15 12.0734 
3 *196:15 *196:19 5.29857 
4 *196:19 *1093:I 5.36543 
5 *196:15 *196:31 1.144 
6 *196:31 *1094:I 9 
7 *1090:Z *196:47 5.436 
8 *196:47 *196:52 7.13514 
9 *196:52 *1091:I 5.26886 
10 *1091:I *196:68 5.27629 
11 *196:68 *196:73 0.159714 
12 *196:73 *1092:I 5.852 
*END

*D_NET *197 0.0150125
*CONN
*I *1078:CLK I *D gf180mcu_fd_sc_mcu7t5v0__dffrnq_1
*I *1079:CLK I *D gf180mcu_fd_sc_mcu7t5v0__dffrnq_1
*I *1073:CLK I *D gf180mcu_fd_sc_mcu7t5v0__dffrnq_1
*I *1076:CLK I *D gf180mcu_fd_sc_mcu7t5v0__dffrnq_1
*I *1062:CLK I *D gf180mcu_fd_sc_mcu7t5v0__dffsnq_1
*I *1063:CLK I *D gf180mcu_fd_sc_mcu7t5v0__dffsnq_1
*I *1064:CLK I *D gf180mcu_fd_sc_mcu7t5v0__dffsnq_1
*I *1065:CLK I *D gf180mcu_fd_sc_mcu7t5v0__dffsnq_1
*I *1091:Z O *D gf180mcu_fd_sc_mcu7t5v0__clkbuf_16
*CAP
1 *1078:CLK 0.000367036
2 *1079:CLK 3.6366e-05
3 *1073:CLK 0.00175032
4 *1076:CLK 0
5 *1062:CLK 0
6 *1063:CLK 0
7 *1064:CLK 0.000549297
8 *1065:CLK 0.000290496
9 *1091:Z 0.000193336
10 *197:83 0.00082505
11 *197:58 0.0021629
12 *197:22 0.00101851
13 *197:20 0.00124979
14 *197:8 0.00172956
15 *197:6 0.00168605
16 *1064:CLK *1036:I0 0.000897324
17 *1064:CLK *1036:S 0.00033655
18 *1065:CLK *1033:I0 0
19 *1073:CLK *939:A1 0
20 *1073:CLK *238:99 0.000240015
21 *1073:CLK *238:105 6.17457e-05
22 *1078:CLK *933:A1 0.000336439
23 *1078:CLK *943:A1 0
24 *197:6 *238:73 0
25 *197:6 *238:81 9.58493e-06
26 *197:8 *238:73 0
27 *197:20 *1065:SETN 2.81522e-06
28 *197:20 *1076:RN 0.000205662
29 *197:20 *238:20 3.22108e-05
30 *197:20 *238:24 0.00019118
31 *197:20 *238:28 5.63044e-06
32 *197:58 *238:81 0.000171311
33 *197:83 *943:A1 0
34 *957:A1 *197:83 0
35 *1034:I1 *1065:CLK 3.22108e-05
36 *1034:I1 *197:20 0
37 *1034:I1 *197:22 0.000172508
38 *1036:I1 *1064:CLK 0.000265501
39 *1064:D *1064:CLK 3.14958e-05
40 *1065:D *1065:CLK 7.87395e-06
41 *1073:D *197:83 0
42 *1076:D *1073:CLK 5.98709e-05
43 *1078:D *1078:CLK 7.87395e-06
44 *1106:I *1078:CLK 0
45 *1106:I *197:83 0
46 *1125:I *1078:CLK 2.47364e-05
47 *179:14 *197:83 2.38865e-05
48 *188:10 *197:6 3.73056e-05
*RES
1 *1091:Z *197:6 5.852 
2 *197:6 *197:8 4.472 
3 *197:8 *197:20 16.696 
4 *197:20 *197:22 1.352 
5 *197:22 *1065:CLK 6.268 
6 *197:22 *1064:CLK 19.116 
7 *197:20 *1063:CLK 4.5 
8 *197:8 *1062:CLK 4.5 
9 *197:6 *197:58 16.592 
10 *197:58 *1076:CLK 4.5 
11 *197:58 *1073:CLK 23.484 
12 *1073:CLK *197:83 7.516 
13 *197:83 *1079:CLK 4.812 
14 *197:83 *1078:CLK 7.516 
*END

*D_NET *198 0.0157742
*CONN
*I *1070:CLK I *D gf180mcu_fd_sc_mcu7t5v0__dffrnq_1
*I *1071:CLK I *D gf180mcu_fd_sc_mcu7t5v0__dffrnq_1
*I *1072:CLK I *D gf180mcu_fd_sc_mcu7t5v0__dffrnq_1
*I *1068:CLK I *D gf180mcu_fd_sc_mcu7t5v0__dffsnq_1
*I *1067:CLK I *D gf180mcu_fd_sc_mcu7t5v0__dffsnq_1
*I *1066:CLK I *D gf180mcu_fd_sc_mcu7t5v0__dffsnq_1
*I *1061:CLK I *D gf180mcu_fd_sc_mcu7t5v0__dffsnq_1
*I *1069:CLK I *D gf180mcu_fd_sc_mcu7t5v0__dffrnq_1
*I *1092:Z O *D gf180mcu_fd_sc_mcu7t5v0__clkbuf_16
*CAP
1 *1070:CLK 0.000503156
2 *1071:CLK 0
3 *1072:CLK 0.000700762
4 *1068:CLK 0
5 *1067:CLK 0.00141289
6 *1066:CLK 4.4118e-05
7 *1061:CLK 0.000187291
8 *1069:CLK 0.000180108
9 *1092:Z 0
10 *198:77 0.00163791
11 *198:36 0.00107592
12 *198:30 0.00147719
13 *198:17 0.00171742
14 *198:15 0.0019003
15 *198:4 0.000573029
16 *1067:CLK *1029:I0 0
17 *1067:CLK *1045:A1 0
18 *1069:CLK *1041:B 0.000171329
19 *1072:CLK *926:I 9.41125e-05
20 *1072:CLK *225:16 0.000279588
21 *1072:CLK *250:30 0.000305216
22 *198:15 *1030:I0 0
23 *198:15 *1041:B 0.000115166
24 *198:15 *225:16 1.36398e-06
25 *198:17 *1025:A1 5.39368e-06
26 *198:17 *250:30 0.000264627
27 *198:36 *1029:I0 0
28 *198:36 *1029:I1 0
29 *198:36 *1045:A1 0
30 *198:77 *1037:I1 0
31 *198:77 *1042:A1 0.000788019
32 *198:77 *1044:I0 0
33 *198:77 *1045:A1 3.118e-05
34 *1025:A2 *198:17 2.83881e-05
35 *1030:I1 *198:30 2.98389e-05
36 *1043:A1 *198:36 3.2098e-05
37 *1043:A2 *1067:CLK 3.89547e-05
38 *1044:I1 *1067:CLK 1.37466e-05
39 *1044:I1 *198:36 9.11271e-06
40 *1061:D *198:30 0.000295535
41 *1066:D *1067:CLK 4.67771e-06
42 *1066:D *198:36 8.35478e-05
43 *1067:D *1067:CLK 2.38865e-05
44 *1068:D *198:30 7.87395e-06
45 *1068:D *198:36 6.16518e-05
46 *1070:D *1070:CLK 4.67771e-06
47 *1071:D *1070:CLK 5.37643e-05
48 *82:12 *1072:CLK 7.83565e-05
49 *82:12 *198:15 4.13954e-05
50 *82:12 *198:17 0.000142282
51 *156:26 *1066:CLK 5.15057e-06
52 *156:26 *1067:CLK 0.000949398
53 *156:26 *198:36 0.000403752
*RES
1 *1092:Z *198:4 4.5 
2 *198:4 *1069:CLK 6.268 
3 *198:4 *198:15 7.308 
4 *198:15 *198:17 7.384 
5 *198:17 *1061:CLK 9.936 
6 *198:17 *198:30 10.428 
7 *198:30 *198:36 6.344 
8 *198:36 *1066:CLK 4.812 
9 *198:36 *1067:CLK 7.516 
10 *198:30 *1068:CLK 4.5 
11 *198:15 *1072:CLK 15.448 
12 *1067:CLK *198:77 24.628 
13 *198:77 *1071:CLK 4.5 
14 *198:77 *1070:CLK 7.828 
*END

*D_NET *199 0.0248866
*CONN
*I *1075:CLK I *D gf180mcu_fd_sc_mcu7t5v0__dffrnq_1
*I *1085:CLK I *D gf180mcu_fd_sc_mcu7t5v0__dffrnq_1
*I *1083:CLK I *D gf180mcu_fd_sc_mcu7t5v0__dffrnq_1
*I *1081:CLK I *D gf180mcu_fd_sc_mcu7t5v0__dffrnq_1
*I *1082:CLK I *D gf180mcu_fd_sc_mcu7t5v0__dffrnq_1
*I *1084:CLK I *D gf180mcu_fd_sc_mcu7t5v0__dffrnq_1
*I *1095:I I *D gf180mcu_fd_sc_mcu7t5v0__clkbuf_2
*I *1077:CLK I *D gf180mcu_fd_sc_mcu7t5v0__dffrnq_1
*I *1080:CLK I *D gf180mcu_fd_sc_mcu7t5v0__dffrnq_1
*I *1093:Z O *D gf180mcu_fd_sc_mcu7t5v0__clkbuf_16
*CAP
1 *1075:CLK 0.000963186
2 *1085:CLK 0.000222015
3 *1083:CLK 0
4 *1081:CLK 0.000530065
5 *1082:CLK 3.6366e-05
6 *1084:CLK 0.000234576
7 *1095:I 0
8 *1077:CLK 0.001179
9 *1080:CLK 0.000836413
10 *1093:Z 0.00120933
11 *199:61 0.000770142
12 *199:52 0.000967063
13 *199:48 0.000591038
14 *199:44 0.00126506
15 *199:14 0.00135541
16 *199:8 0.000531723
17 *1075:CLK *939:A1 0.00210379
18 *1080:CLK *934:A1 0.000103788
19 *1080:CLK *1080:RN 0.000719217
20 *1081:CLK *980:A1 0
21 *1085:CLK *938:A1 4.62012e-05
22 *1085:CLK *240:61 3.65102e-05
23 *199:14 *1080:RN 0.000167616
24 *199:44 *938:A1 5.47431e-06
25 *199:44 *1083:RN 2.38773e-05
26 *199:44 *240:61 1.26329e-05
27 *199:48 *240:61 0.000851532
28 *199:52 *983:A1 0.000274648
29 *199:52 *240:61 0.000124679
30 *938:A2 *199:44 0.000134645
31 *939:A2 *1075:CLK 0.000137631
32 *947:A1 *1077:CLK 0
33 *947:A1 *1080:CLK 0.000692314
34 *947:A1 *199:14 0.000441747
35 *951:A3 *1075:CLK 1.92886e-05
36 *952:A3 *1080:CLK 0.000381274
37 *952:A4 *199:44 0
38 *963:A2 *1075:CLK 0.000720651
39 *967:A1 *1077:CLK 0
40 *967:A1 *199:14 1.07369e-05
41 *968:A2 *1077:CLK 6.95257e-05
42 *983:A2 *1084:CLK 0
43 *983:A2 *199:52 0.00153914
44 *983:A3 *1084:CLK 0
45 *986:A2 *199:48 0.000116466
46 *986:A2 *199:52 0.000424122
47 *1076:D *1075:CLK 0
48 *1081:D *1081:CLK 0
49 *1082:D *1081:CLK 2.83652e-05
50 *1082:D *199:61 6.38863e-05
51 *1083:D *199:48 0.000397047
52 *1083:D *199:52 0.000197059
53 *1084:D *1084:CLK 7.87395e-06
54 *1142:I *199:44 8.5094e-05
55 *25:18 *199:52 0
56 *112:10 *1075:CLK 0
57 *123:12 *199:52 0.000988203
58 *180:10 *199:48 0.000720376
59 *180:16 *199:52 3.99951e-05
60 *188:23 *1075:CLK 8.94231e-05
61 *188:30 *1075:CLK 0.000124533
62 *189:18 *1075:CLK 0.00120221
63 *193:34 *199:52 0.00109368
*RES
1 *1093:Z *199:8 6.164 
2 *199:8 *199:14 7.204 
3 *199:14 *1080:CLK 18.464 
4 *199:14 *1077:CLK 10.56 
5 *199:8 *1095:I 4.5 
6 *1093:Z *199:44 11.676 
7 *199:44 *199:48 9.804 
8 *199:48 *199:52 13.548 
9 *199:52 *1084:CLK 6.06 
10 *199:52 *199:61 1.56 
11 *199:61 *1082:CLK 4.812 
12 *199:61 *1081:CLK 8.452 
13 *199:48 *1083:CLK 9 
14 *199:44 *1085:CLK 6.06 
15 *1077:CLK *1075:CLK 20.752 
*END

*D_NET *200 0.0154593
*CONN
*I *1059:CLK I *D gf180mcu_fd_sc_mcu7t5v0__dffrnq_1
*I *1060:CLK I *D gf180mcu_fd_sc_mcu7t5v0__dffrnq_1
*I *1088:CLK I *D gf180mcu_fd_sc_mcu7t5v0__dffrnq_1
*I *1086:CLK I *D gf180mcu_fd_sc_mcu7t5v0__dffrnq_1
*I *1096:I I *D gf180mcu_fd_sc_mcu7t5v0__clkbuf_2
*I *1087:CLK I *D gf180mcu_fd_sc_mcu7t5v0__dffrnq_1
*I *1058:CLK I *D gf180mcu_fd_sc_mcu7t5v0__dffrnq_1
*I *1089:CLK I *D gf180mcu_fd_sc_mcu7t5v0__dffrnq_1
*I *1074:CLK I *D gf180mcu_fd_sc_mcu7t5v0__dffrnq_1
*I *1094:Z O *D gf180mcu_fd_sc_mcu7t5v0__clkbuf_16
*CAP
1 *1059:CLK 0
2 *1060:CLK 0.000476199
3 *1088:CLK 0.000402315
4 *1086:CLK 0
5 *1096:I 0
6 *1087:CLK 0.000121589
7 *1058:CLK 0
8 *1089:CLK 0
9 *1074:CLK 0.0011347
10 *1094:Z 0.000720955
11 *200:86 0.00116864
12 *200:59 0.00137562
13 *200:43 0.000720072
14 *200:39 0.00172118
15 *200:16 0.0016104
16 *200:8 0.00116007
17 *200:6 0.000862274
18 *1087:CLK *936:A1 0.00028101
19 *1088:CLK *1000:A1 2.13536e-05
20 *1088:CLK *1086:RN 4.33349e-05
21 *200:6 *241:59 0
22 *200:8 *241:59 0
23 *200:43 *936:A1 9.33122e-05
24 *954:A1 *200:16 1.07369e-05
25 *997:A1 *1087:CLK 0.000497696
26 *997:A2 *200:16 2.60017e-05
27 *998:A1 *200:59 0
28 *998:A2 *1088:CLK 2.81522e-06
29 *998:A2 *200:59 4.55356e-05
30 *1000:A2 *1088:CLK 7.55189e-05
31 *1000:A3 *1088:CLK 0.000111423
32 *1000:A3 *200:59 8.58959e-05
33 *1059:D *1060:CLK 0.000452354
34 *1059:D *200:86 5.12872e-06
35 *1061:D *1074:CLK 0
36 *1074:D *1074:CLK 0
37 *1089:D *1074:CLK 0
38 *1089:D *200:16 0
39 *1098:I *200:43 3.4046e-05
40 *83:12 *200:16 0.00109818
41 *103:16 *200:16 1.07369e-05
42 *105:22 *1087:CLK 2.73715e-06
43 *132:23 *200:59 6.15997e-06
44 *184:10 *200:8 3.56133e-05
45 *184:10 *200:39 3.53845e-05
46 *184:10 *200:43 3.21875e-05
47 *184:14 *200:43 1.90906e-05
48 *184:38 *200:59 9.74622e-05
49 *184:47 *200:59 0.000218973
50 *196:15 *1087:CLK 0.000376815
51 *196:15 *200:43 0.000107033
52 *196:31 *200:43 0.000158782
53 *196:47 *1074:CLK 0
54 *196:52 *1074:CLK 0
*RES
1 *1094:Z *200:6 4.812 
2 *200:6 *200:8 4.056 
3 *200:8 *200:16 13.784 
4 *200:16 *1074:CLK 12.404 
5 *200:16 *1089:CLK 4.5 
6 *200:8 *1058:CLK 4.5 
7 *200:6 *200:39 5.852 
8 *200:39 *200:43 8.764 
9 *200:43 *1087:CLK 7.1 
10 *200:43 *1096:I 4.5 
11 *200:39 *200:59 12.3 
12 *200:59 *1086:CLK 4.5 
13 *200:59 *1088:CLK 16.828 
14 *1094:Z *200:86 9.284 
15 *200:86 *1060:CLK 17.452 
16 *200:86 *1059:CLK 4.5 
*END

*D_NET *201 0.00185094
*CONN
*I *1010:A1 I *D gf180mcu_fd_sc_mcu7t5v0__oai21_1
*I *1009:A1 I *D gf180mcu_fd_sc_mcu7t5v0__and2_1
*I *1103:Z O *D gf180mcu_fd_sc_mcu7t5v0__dlyb_1
*CAP
1 *1010:A1 8.77334e-06
2 *1009:A1 0.000318682
3 *1103:Z 0.000192711
4 *201:8 0.000520167
5 *1009:A1 *1069:RN 8.29965e-06
6 *1010:A1 *1072:RN 0.000113016
7 *201:8 *922:I 0
8 *1010:A2 *1009:A1 0.000403896
9 *1011:A2 *1009:A1 2.36218e-05
10 *142:10 *201:8 0
11 *143:15 *1009:A1 5.55518e-05
12 *144:19 *1009:A1 9.32019e-05
13 *144:19 *1010:A1 0.000113016
*RES
1 *1103:Z *201:8 10.352 
2 *201:8 *1009:A1 11.496 
3 *201:8 *1010:A1 9.312 
*END

*D_NET *202 0.00729927
*CONN
*I *932:A1 I *D gf180mcu_fd_sc_mcu7t5v0__xnor2_1
*I *1104:Z O *D gf180mcu_fd_sc_mcu7t5v0__dlyb_1
*CAP
1 *932:A1 0.00147641
2 *1104:Z 0.00147641
3 *932:A1 *933:A1 0
4 *932:A1 *935:A1 4.16074e-05
5 *932:A1 *959:A1 0
6 *932:A1 *972:A1 0.000797044
7 *932:A1 *230:32 0
8 *932:A1 *230:87 0.00120738
9 *932:A2 *932:A1 0.000113016
10 *950:A4 *932:A1 0
11 *951:A3 *932:A1 0.000609848
12 *952:A1 *932:A1 2.38656e-05
13 *964:A4 *932:A1 0
14 *1078:D *932:A1 0.000224121
15 *116:18 *932:A1 0.00132956
*RES
1 *1104:Z *932:A1 34.848 
*END

*D_NET *203 0.00610163
*CONN
*I *933:A1 I *D gf180mcu_fd_sc_mcu7t5v0__xnor2_1
*I *1105:Z O *D gf180mcu_fd_sc_mcu7t5v0__dlyb_1
*CAP
1 *933:A1 0.00164553
2 *1105:Z 0.00164553
3 *933:A1 *943:A1 6.57385e-05
4 *933:A1 *957:A2 3.69063e-05
5 *933:A1 *230:32 5.63044e-06
6 *933:A1 *230:49 1.21548e-05
7 *932:A1 *933:A1 0
8 *933:A2 *933:A1 0.000387745
9 *939:A2 *933:A1 0
10 *964:A1 *933:A1 3.48292e-05
11 *964:A2 *933:A1 0.000185295
12 *964:A4 *933:A1 0.000220531
13 *971:A2 *933:A1 0.000551516
14 *973:A1 *933:A1 0.000255738
15 *1078:D *933:A1 0
16 *1078:CLK *933:A1 0.000336439
17 *1125:I *933:A1 0.000163527
18 *111:8 *933:A1 0.000102348
19 *112:10 *933:A1 0.000103933
20 *116:18 *933:A1 0
21 *187:29 *933:A1 0.000332917
22 *190:12 *933:A1 1.53275e-05
*RES
1 *1105:Z *933:A1 34.744 
*END

*D_NET *204 0.00701273
*CONN
*I *939:A1 I *D gf180mcu_fd_sc_mcu7t5v0__xor2_1
*I *1106:Z O *D gf180mcu_fd_sc_mcu7t5v0__dlyb_1
*CAP
1 *939:A1 0.00182894
2 *1106:Z 0.00182894
3 *939:A1 *238:99 0.000323473
4 *939:A1 *238:105 4.0819e-05
5 *965:A1 *939:A1 0.000111373
6 *965:A2 *939:A1 0.000128112
7 *966:A2 *939:A1 9.08683e-05
8 *966:A3 *939:A1 8.16884e-06
9 *1073:CLK *939:A1 0
10 *1075:CLK *939:A1 0.00210379
11 *1079:D *939:A1 1.8196e-05
12 *179:14 *939:A1 0.000257506
13 *179:38 *939:A1 0.000272556
*RES
1 *1106:Z *939:A1 35.264 
*END

*D_NET *205 0.000496935
*CONN
*I *941:A1 I *D gf180mcu_fd_sc_mcu7t5v0__xor2_1
*I *1107:Z O *D gf180mcu_fd_sc_mcu7t5v0__dlyb_1
*CAP
1 *941:A1 0.000246129
2 *1107:Z 0.000246129
3 *941:A1 *934:A1 0
4 *941:A1 *945:A1 0
5 *941:A1 *948:A1 0
6 *941:A1 *230:87 0
7 *942:A2 *941:A1 4.67771e-06
*RES
1 *1107:Z *941:A1 19.872 
*END

*D_NET *206 0.000416953
*CONN
*I *935:A1 I *D gf180mcu_fd_sc_mcu7t5v0__xor2_1
*I *1108:Z O *D gf180mcu_fd_sc_mcu7t5v0__dlyb_1
*CAP
1 *935:A1 0.000187673
2 *1108:Z 0.000187673
3 *935:A1 *945:A1 0
4 *935:A1 *230:87 0
5 *932:A1 *935:A1 4.16074e-05
*RES
1 *1108:Z *935:A1 19.664 
*END

*D_NET *207 0.000429672
*CONN
*I *945:A1 I *D gf180mcu_fd_sc_mcu7t5v0__xor2_1
*I *1109:Z O *D gf180mcu_fd_sc_mcu7t5v0__dlyb_1
*CAP
1 *945:A1 0.000214836
2 *1109:Z 0.000214836
3 *945:A1 *230:87 0
4 *935:A1 *945:A1 0
5 *941:A1 *945:A1 0
*RES
1 *1109:Z *945:A1 19.664 
*END

*D_NET *208 0.00432499
*CONN
*I *934:A1 I *D gf180mcu_fd_sc_mcu7t5v0__xor2_1
*I *1110:Z O *D gf180mcu_fd_sc_mcu7t5v0__dlyb_1
*CAP
1 *934:A1 0.00101442
2 *1110:Z 0.00101442
3 *934:A1 *948:A1 0.000522341
4 *934:A1 *1080:RN 9.74836e-05
5 *941:A1 *934:A1 0
6 *947:A1 *934:A1 6.8199e-07
7 *978:A3 *934:A1 0
8 *1080:CLK *934:A1 0.000103788
9 *112:14 *934:A1 3.646e-05
10 *192:8 *934:A1 3.4596e-05
11 *192:16 *934:A1 0.00150081
*RES
1 *1110:Z *934:A1 26.944 
*END

*D_NET *209 0.000711641
*CONN
*I *937:A1 I *D gf180mcu_fd_sc_mcu7t5v0__xor2_1
*I *1111:Z O *D gf180mcu_fd_sc_mcu7t5v0__dlyb_1
*CAP
1 *937:A1 0.000355821
2 *1111:Z 0.000355821
3 *937:A1 *938:A1 0
*RES
1 *1111:Z *937:A1 11.704 
*END

*D_NET *210 0.000583856
*CONN
*I *940:A1 I *D gf180mcu_fd_sc_mcu7t5v0__xor2_1
*I *1112:Z O *D gf180mcu_fd_sc_mcu7t5v0__dlyb_1
*CAP
1 *940:A1 0.000241298
2 *1112:Z 0.000241298
3 *940:A1 *230:87 1.23682e-05
4 *940:A1 *230:104 7.17602e-05
5 *942:A2 *940:A1 1.71326e-05
*RES
1 *1112:Z *940:A1 11.08 
*END

*D_NET *211 0.00129903
*CONN
*I *921:I I *D gf180mcu_fd_sc_mcu7t5v0__clkinv_1
*I *1113:Z O *D gf180mcu_fd_sc_mcu7t5v0__dlyb_1
*CAP
1 *921:I 0.000288169
2 *1113:Z 0.000288169
3 *921:I *1014:A4 0.000169099
4 *921:I *1140:I 0.000428493
5 *921:I *213:10 7.31277e-05
6 *39:12 *921:I 5.19755e-05
7 *40:14 *921:I 0
*RES
1 *1113:Z *921:I 12.328 
*END

*D_NET *212 0.0016122
*CONN
*I *1008:A1 I *D gf180mcu_fd_sc_mcu7t5v0__xor2_1
*I *1114:Z O *D gf180mcu_fd_sc_mcu7t5v0__dlyb_1
*CAP
1 *1008:A1 0.000145663
2 *1114:Z 0.000145663
3 *1008:A1 *1072:RN 2.2517e-05
4 *1008:A1 *241:38 0.00106072
5 *1010:B *1008:A1 0.000237629
*RES
1 *1114:Z *1008:A1 11.808 
*END

*D_NET *213 0.00423574
*CONN
*I *1016:A4 I *D gf180mcu_fd_sc_mcu7t5v0__nand4_1
*I *1015:A2 I *D gf180mcu_fd_sc_mcu7t5v0__nand2_1
*I *1115:Z O *D gf180mcu_fd_sc_mcu7t5v0__dlyb_1
*CAP
1 *1016:A4 8.10372e-05
2 *1015:A2 2.8979e-05
3 *1115:Z 0.000955893
4 *213:10 0.00106591
5 *213:10 *1014:A4 0.000430795
6 *213:10 *1140:I 7.9929e-05
7 tx_ready_o *213:10 0
8 *921:I *213:10 7.31277e-05
9 *1021:A1 *1015:A2 0.000188231
10 *1021:A1 *213:10 0.000107648
11 *1113:I *213:10 0
12 *1116:I *213:10 0
13 *39:12 *1016:A4 0.000404119
14 *39:20 *1016:A4 1.12327e-05
15 *40:14 *213:10 9.09864e-05
16 *40:45 *213:10 0
17 *74:51 *1016:A4 0.000610711
18 *75:15 *1015:A2 7.05624e-05
19 *75:15 *213:10 3.658e-05
*RES
1 *1115:Z *213:10 16.696 
2 *213:10 *1015:A2 9.52 
3 *213:10 *1016:A4 10.872 
*END

*D_NET *214 0.00160381
*CONN
*I *1014:A4 I *D gf180mcu_fd_sc_mcu7t5v0__nand4_1
*I *1116:Z O *D gf180mcu_fd_sc_mcu7t5v0__dlyb_1
*CAP
1 *1014:A4 0.000166442
2 *1116:Z 0.000166442
3 *1014:A4 *1140:I 2.2e-05
4 *921:I *1014:A4 0.000169099
5 *1014:A3 *1014:A4 0.00033778
6 *39:12 *1014:A4 2.24654e-05
7 *74:51 *1014:A4 0.000182208
8 *75:15 *1014:A4 0.000106582
9 *213:10 *1014:A4 0.000430795
*RES
1 *1116:Z *1014:A4 20.704 
*END

*D_NET *215 0.00191865
*CONN
*I *1102:I I *D gf180mcu_fd_sc_mcu7t5v0__dlyb_1
*I *1117:Z O *D gf180mcu_fd_sc_mcu7t5v0__dlyb_1
*CAP
1 *1102:I 0.00093754
2 *1117:Z 0.00093754
3 *1102:I *1100:I 4.3569e-05
4 *1117:I *1102:I 0
5 *58:10 *1102:I 0
*RES
1 *1117:Z *1102:I 15.344 
*END

*D_NET *216 0.00677306
*CONN
*I *1029:I0 I *D gf180mcu_fd_sc_mcu7t5v0__mux2_2
*I *1118:Z O *D gf180mcu_fd_sc_mcu7t5v0__dlyb_1
*CAP
1 *1029:I0 0.00182954
2 *1118:Z 0.00182954
3 *1029:I0 *1030:I0 0
4 *1029:I0 *1032:I0 0
5 *1029:I0 *1037:I0 3.32327e-05
6 *1029:I0 *1045:A1 0.00152879
7 *1029:I0 *235:10 0.000216974
8 *1029:I0 *251:8 0
9 *1030:S *1029:I0 0
10 *1037:S *1029:I0 0
11 *1043:A1 *1029:I0 0.000702735
12 *1046:B *1029:I0 0.000428493
13 *1067:D *1029:I0 9.41125e-05
14 *1067:CLK *1029:I0 0
15 *1068:D *1029:I0 0.000109634
16 *156:26 *1029:I0 0
17 *159:8 *1029:I0 0
18 *198:36 *1029:I0 0
*RES
1 *1118:Z *1029:I0 34.016 
*END

*D_NET *217 0.00347081
*CONN
*I *1031:I0 I *D gf180mcu_fd_sc_mcu7t5v0__mux2_2
*I *1119:Z O *D gf180mcu_fd_sc_mcu7t5v0__dlyb_1
*CAP
1 *1031:I0 0.000739607
2 *1119:Z 0.000739607
3 *1031:I0 *1029:S 3.10673e-05
4 *1031:I0 *1031:S 0.000571507
5 *1031:I0 *1035:I0 0.000237629
6 *1031:I0 *1035:S 0.0011168
7 *1031:I0 *1044:S 0
8 *1031:I0 *1062:SETN 3.4596e-05
9 *1043:A2 *1031:I0 0
*RES
1 *1119:Z *1031:I0 16.384 
*END

*D_NET *218 0.00198152
*CONN
*I *1033:I0 I *D gf180mcu_fd_sc_mcu7t5v0__mux2_2
*I *1120:Z O *D gf180mcu_fd_sc_mcu7t5v0__dlyb_1
*CAP
1 *1033:I0 0.000834645
2 *1120:Z 0.000834645
3 *1033:I0 *1033:S 3.94467e-05
4 *1033:I0 *1038:S 0
5 *1033:I0 *1064:SETN 0.000223982
6 *1065:D *1033:I0 4.87987e-05
7 *1065:CLK *1033:I0 0
*RES
1 *1120:Z *1033:I0 15.24 
*END

*D_NET *219 0.000744955
*CONN
*I *1035:I0 I *D gf180mcu_fd_sc_mcu7t5v0__mux2_2
*I *1121:Z O *D gf180mcu_fd_sc_mcu7t5v0__dlyb_1
*CAP
1 *1035:I0 0.000253663
2 *1121:Z 0.000253663
3 *1031:I0 *1035:I0 0.000237629
*RES
1 *1121:Z *1035:I0 11.496 
*END

*D_NET *220 0.000922667
*CONN
*I *1037:I0 I *D gf180mcu_fd_sc_mcu7t5v0__mux2_2
*I *1122:Z O *D gf180mcu_fd_sc_mcu7t5v0__dlyb_1
*CAP
1 *1037:I0 0.000180454
2 *1122:Z 0.000180454
3 *1037:I0 *1037:I1 0.000522341
4 *1029:I0 *1037:I0 3.32327e-05
5 *1037:S *1037:I0 6.18411e-06
*RES
1 *1122:Z *1037:I0 19.872 
*END

*D_NET *221 0.00102504
*CONN
*I *1039:I0 I *D gf180mcu_fd_sc_mcu7t5v0__mux2_2
*I *1123:Z O *D gf180mcu_fd_sc_mcu7t5v0__dlyb_1
*CAP
1 *1039:I0 0.000476247
2 *1123:Z 0.000476247
3 *1039:I0 *256:8 2.11493e-05
4 *1039:S *1039:I0 5.13977e-05
5 *1123:I *1039:I0 0
*RES
1 *1123:Z *1039:I0 12.432 
*END

*D_NET *222 0.00320706
*CONN
*I *1042:A1 I *D gf180mcu_fd_sc_mcu7t5v0__nor2_1
*I *1124:Z O *D gf180mcu_fd_sc_mcu7t5v0__dlyb_1
*CAP
1 *1042:A1 0.00060049
2 *1124:Z 0.00060049
3 *1042:A1 *1037:I1 0.000472205
4 *1042:A1 *1044:I0 0
5 *1038:I1 *1042:A1 0
6 *1122:I *1042:A1 0.000579191
7 *1123:I *1042:A1 5.85615e-05
8 *1126:I *1042:A1 0.000108108
9 *198:77 *1042:A1 0.000788019
*RES
1 *1124:Z *1042:A1 26.32 
*END

*D_NET *223 0.00225466
*CONN
*I *943:A1 I *D gf180mcu_fd_sc_mcu7t5v0__xor2_1
*I *1125:Z O *D gf180mcu_fd_sc_mcu7t5v0__dlyb_1
*CAP
1 *943:A1 0.000425917
2 *1125:Z 0.000425917
3 *943:A1 *957:A2 0.0011051
4 *933:A1 *943:A1 6.57385e-05
5 *949:A2 *943:A1 0
6 *957:A1 *943:A1 0.000113016
7 *1078:CLK *943:A1 0
8 *1125:I *943:A1 3.93698e-05
9 *179:14 *943:A1 7.96024e-05
10 *197:83 *943:A1 0
*RES
1 *1125:Z *943:A1 22.576 
*END

*D_NET *224 0.00305213
*CONN
*I *1045:A1 I *D gf180mcu_fd_sc_mcu7t5v0__nor2_1
*I *1126:Z O *D gf180mcu_fd_sc_mcu7t5v0__dlyb_1
*CAP
1 *1045:A1 0.000350083
2 *1126:Z 0.000350083
3 *1045:A1 *1044:I0 0.000179953
4 *1029:I0 *1045:A1 0.00152879
5 *1043:A1 *1045:A1 0.0004162
6 *1044:I1 *1045:A1 0.000195837
7 *1067:CLK *1045:A1 0
8 *198:36 *1045:A1 0
9 *198:77 *1045:A1 3.118e-05
*RES
1 *1126:Z *1045:A1 23.408 
*END

*D_NET *225 0.00847096
*CONN
*I *926:I I *D gf180mcu_fd_sc_mcu7t5v0__clkinv_1
*I *1041:A1 I *D gf180mcu_fd_sc_mcu7t5v0__aoi21_1
*I *1025:A1 I *D gf180mcu_fd_sc_mcu7t5v0__nand2_1
*I *1127:Z O *D gf180mcu_fd_sc_mcu7t5v0__dlyb_1
*CAP
1 *926:I 6.62076e-05
2 *1041:A1 0
3 *1025:A1 0.000141925
4 *1127:Z 0.0010146
5 *225:16 0.000677189
6 *225:10 0.00161608
7 *225:10 *1002:A2 4.83728e-05
8 *225:10 *1003:A2 0.000131101
9 *225:10 *1057:A1 4.9065e-05
10 *225:10 *247:8 9.24493e-05
11 *1025:A2 *1025:A1 0.000262946
12 *1055:A2 *225:10 0.000594106
13 *1072:D *225:10 7.93632e-05
14 *1072:CLK *926:I 9.41125e-05
15 *1072:CLK *225:16 0.000279588
16 *82:12 *926:I 0.000387745
17 *82:12 *1025:A1 0.000247638
18 *82:12 *225:16 0.00268172
19 *198:15 *225:16 1.36398e-06
20 *198:17 *1025:A1 5.39368e-06
*RES
1 *1127:Z *225:10 22.756 
2 *225:10 *225:16 11.988 
3 *225:16 *1025:A1 10.56 
4 *225:16 *1041:A1 9 
5 *225:10 *926:I 5.644 
*END

*D_NET *226 0.0026507
*CONN
*I *1017:A1 I *D gf180mcu_fd_sc_mcu7t5v0__nand3_1
*I *1138:I I *D gf180mcu_fd_sc_mcu7t5v0__dlyb_1
*I *955:A2 I *D gf180mcu_fd_sc_mcu7t5v0__nor2_1
*I *929:ZN O *D gf180mcu_fd_sc_mcu7t5v0__clkinv_1
*CAP
1 *1017:A1 6.9103e-05
2 *1138:I 0.000264544
3 *955:A2 0
4 *929:ZN 0.000201224
5 *226:14 0.000919547
6 *226:8 0.00092533
7 *1138:I *1140:I 0.000103933
8 *226:14 *240:118 1.80678e-05
9 *226:14 *241:38 0
10 *955:A1 *1138:I 1.23682e-05
11 *1020:A4 *226:14 0
12 *1023:A4 *1017:A1 6.8808e-05
13 *1023:A4 *226:8 4.91701e-05
14 *39:20 *226:14 0
15 *40:45 *1138:I 7.86954e-06
16 *145:14 *226:14 0
17 *146:18 *1017:A1 0
18 *146:18 *226:8 0
19 *146:27 *1017:A1 0
20 *146:50 *1017:A1 1.07369e-05
21 *146:50 *226:8 0
*RES
1 *929:ZN *226:8 5.956 
2 *226:8 *226:14 12.848 
3 *226:14 *955:A2 4.5 
4 *226:14 *1138:I 6.788 
5 *226:8 *1017:A1 5.228 
*END

*D_NET *227 0.000479487
*CONN
*I *1139:I I *D gf180mcu_fd_sc_mcu7t5v0__dlyb_1
*I *1004:ZN O *D gf180mcu_fd_sc_mcu7t5v0__aoi22_1
*CAP
1 *1139:I 0.000185232
2 *1004:ZN 0.000185232
3 *1139:I *241:38 7.16472e-05
4 *40:45 *1139:I 3.73758e-05
*RES
1 *1004:ZN *1139:I 10.456 
*END

*D_NET *228 0.00187247
*CONN
*I *1140:I I *D gf180mcu_fd_sc_mcu7t5v0__dlyb_1
*I *955:ZN O *D gf180mcu_fd_sc_mcu7t5v0__nor2_1
*CAP
1 *1140:I 0.000443513
2 *955:ZN 0.000443513
3 *921:I *1140:I 0.000428493
4 *955:A1 *1140:I 0.000345736
5 *1014:A4 *1140:I 2.2e-05
6 *1138:I *1140:I 0.000103933
7 *74:51 *1140:I 5.35362e-06
8 *213:10 *1140:I 7.9929e-05
*RES
1 *955:ZN *1140:I 13.784 
*END

*D_NET *229 0.0155194
*CONN
*I *1040:S I *D gf180mcu_fd_sc_mcu7t5v0__mux2_2
*I *1032:S I *D gf180mcu_fd_sc_mcu7t5v0__mux2_2
*I *1034:S I *D gf180mcu_fd_sc_mcu7t5v0__mux2_2
*I *1038:S I *D gf180mcu_fd_sc_mcu7t5v0__mux2_2
*I *1036:S I *D gf180mcu_fd_sc_mcu7t5v0__mux2_2
*I *1044:S I *D gf180mcu_fd_sc_mcu7t5v0__mux2_2
*I *1134:Z O *D gf180mcu_fd_sc_mcu7t5v0__clkbuf_3
*CAP
1 *1040:S 0
2 *1032:S 3.49467e-05
3 *1034:S 0
4 *1038:S 0.000498764
5 *1036:S 0.000622341
6 *1044:S 0.000375276
7 *1134:Z 0.000790196
8 *229:33 0.00148587
9 *229:31 0.000819221
10 *229:27 0.000967763
11 *229:14 0.00145037
12 *229:10 0.00138693
13 *1032:S *1029:S 2.38656e-05
14 *1036:S *1033:S 0.000493893
15 *1036:S *1036:I0 0.000641254
16 *1036:S *253:10 0.000160438
17 *1038:S *1038:I0 0.00034255
18 *1038:S *1064:SETN 4.75465e-05
19 *1038:S *253:10 0.000133254
20 *1044:S *1031:S 0
21 *229:10 *1041:B 1.84122e-05
22 *229:10 *239:49 0.000331178
23 *229:27 *1032:I0 7.18709e-05
24 *229:27 *1062:SETN 1.85524e-05
25 *229:27 *251:8 3.62739e-05
26 *229:31 *1034:I0 0.00110699
27 *229:31 *1062:SETN 5.02052e-05
28 *229:31 *1076:RN 0.000107648
29 *229:31 *238:24 3.38238e-06
30 *229:33 *1064:SETN 2.73037e-05
31 *229:33 *1065:SETN 0
32 *229:33 *1076:RN 0.000460013
33 *229:33 *238:20 0.000568431
34 *229:33 *253:10 7.15269e-06
35 *1031:I0 *1044:S 0
36 *1032:I1 *1032:S 1.60338e-05
37 *1033:I0 *1038:S 0
38 *1036:I1 *1036:S 0
39 *1039:S *229:10 3.37296e-05
40 *1040:I1 *229:10 0.000149118
41 *1040:I1 *229:14 4.67533e-05
42 *1043:A2 *1044:S 8.56628e-05
43 *1062:D *229:31 0
44 *1064:CLK *1036:S 0.00033655
45 *1066:D *229:14 0.000141195
46 *1121:I *1038:S 1.23682e-05
47 *156:14 *229:10 1.60028e-05
48 *156:14 *229:14 6.40114e-06
49 *156:16 *229:14 5.43005e-05
50 *156:26 *1044:S 0.000337809
51 *156:26 *229:14 4.73647e-05
52 *156:26 *229:27 0.000184188
53 *166:10 *229:10 0.000970012
*RES
1 *1134:Z *229:10 16.488 
2 *229:10 *229:14 9.18 
3 *229:14 *1044:S 7.724 
4 *229:14 *229:27 8.66 
5 *229:27 *229:31 9.388 
6 *229:31 *229:33 3.432 
7 *229:33 *1036:S 20.572 
8 *229:33 *1038:S 9.076 
9 *229:31 *1034:S 4.5 
10 *229:27 *1032:S 9.312 
11 *229:10 *1040:S 9 
*END

*D_NET *230 0.0274633
*CONN
*I *959:A1 I *D gf180mcu_fd_sc_mcu7t5v0__nor2_1
*I *962:A1 I *D gf180mcu_fd_sc_mcu7t5v0__nor3_1
*I *972:A1 I *D gf180mcu_fd_sc_mcu7t5v0__nor3_1
*I *980:A1 I *D gf180mcu_fd_sc_mcu7t5v0__nor2_1
*I *983:A1 I *D gf180mcu_fd_sc_mcu7t5v0__nor3_1
*I *978:A1 I *D gf180mcu_fd_sc_mcu7t5v0__nor3_1
*I *974:A1 I *D gf180mcu_fd_sc_mcu7t5v0__nor2_1
*I *957:A2 I *D gf180mcu_fd_sc_mcu7t5v0__nor2_1
*I *966:A1 I *D gf180mcu_fd_sc_mcu7t5v0__nor3_1
*I *968:A1 I *D gf180mcu_fd_sc_mcu7t5v0__nor2_1
*I *1097:Z O *D gf180mcu_fd_sc_mcu7t5v0__dlyb_1
*CAP
1 *959:A1 0.0003881
2 *962:A1 0
3 *972:A1 0.000137992
4 *980:A1 0.000250548
5 *983:A1 0.000163082
6 *978:A1 0.000274423
7 *974:A1 0
8 *957:A2 0.00113757
9 *966:A1 0
10 *968:A1 9.42906e-05
11 *1097:Z 0.000799672
12 *230:104 0.00125337
13 *230:87 0.00238429
14 *230:79 0.00168228
15 *230:70 0.000274153
16 *230:49 0.00171382
17 *230:38 0.000813995
18 *230:32 0.000616869
19 *230:24 0.0014726
20 *230:79 *1078:RN 0.00079293
21 *932:A1 *959:A1 0
22 *932:A1 *972:A1 0.000797044
23 *932:A1 *230:32 0
24 *932:A1 *230:87 0.00120738
25 *933:A1 *957:A2 3.69063e-05
26 *933:A1 *230:32 5.63044e-06
27 *933:A1 *230:49 1.21548e-05
28 *933:A2 *230:24 0.000500761
29 *935:A1 *230:87 0
30 *935:A2 *230:87 0.000136268
31 *939:A2 *230:32 2.38773e-05
32 *940:A1 *230:87 1.23682e-05
33 *940:A1 *230:104 7.17602e-05
34 *940:A2 *230:104 0.00114222
35 *941:A1 *230:87 0
36 *941:A2 *230:87 0.000168532
37 *942:A1 *230:87 0.000194511
38 *942:A1 *230:104 0.000114515
39 *942:A2 *230:87 0.000189037
40 *943:A1 *957:A2 0.0011051
41 *945:A1 *230:87 0
42 *948:A2 *978:A1 0
43 *948:A2 *230:87 0.000415433
44 *948:A2 *230:104 1.12327e-05
45 *949:A2 *957:A2 5.69355e-05
46 *949:A2 *230:79 0
47 *949:A4 *230:87 0
48 *950:A4 *972:A1 5.61372e-05
49 *950:A4 *230:87 2.37133e-06
50 *952:A1 *230:24 0
51 *952:A3 *978:A1 6.08446e-05
52 *957:A1 *957:A2 0.000296241
53 *958:A1 *959:A1 0
54 *961:A2 *230:32 0
55 *964:A1 *230:32 0.000569964
56 *964:A2 *230:32 2.24654e-05
57 *964:A4 *230:32 0.000487069
58 *966:A2 *230:49 0.000184188
59 *971:A1 *230:79 0.00017298
60 *971:A2 *230:38 0
61 *971:A2 *230:49 0.000511042
62 *971:A2 *230:79 5.38712e-05
63 *974:A2 *230:79 0.000111435
64 *978:A3 *230:87 0
65 *979:A2 *230:104 0.000422961
66 *980:A2 *980:A1 0.000298703
67 *980:A2 *230:104 1.07369e-05
68 *982:A1 *230:104 0
69 *983:A3 *230:104 0.000333334
70 *1079:D *957:A2 4.49882e-05
71 *1081:CLK *980:A1 0
72 *1082:D *980:A1 0
73 *1082:D *230:104 0
74 *25:18 *983:A1 0
75 *109:8 *230:32 0.000428493
76 *111:8 *230:38 0
77 *112:10 *968:A1 0.000162991
78 *112:10 *230:24 0.00016914
79 *120:36 *230:104 0
80 *179:14 *957:A2 0
81 *179:14 *230:49 0
82 *179:38 *230:38 0.00108054
83 *179:38 *230:49 0
84 *186:10 *959:A1 0
85 *187:25 *959:A1 0
86 *187:29 *230:24 4.07478e-05
87 *188:23 *230:32 0.000139043
88 *188:30 *230:32 0.000125933
89 *190:12 *230:79 0.000397755
90 *190:19 *230:79 0.00017298
91 *191:26 *230:87 0.000380013
92 *193:34 *230:104 0
93 *199:52 *983:A1 0.000274648
*RES
1 *1097:Z *968:A1 10.04 
2 *1097:Z *230:24 14.616 
3 *230:24 *230:32 9.388 
4 *230:32 *230:38 11.808 
5 *230:38 *966:A1 4.5 
6 *230:38 *230:49 10.948 
7 *230:49 *957:A2 18.568 
8 *230:49 *230:70 4.5 
9 *230:70 *974:A1 4.5 
10 *230:70 *230:79 8.14 
11 *230:79 *230:87 17.084 
12 *230:87 *978:A1 14.852 
13 *230:87 *230:104 9.256 
14 *230:104 *983:A1 15.268 
15 *230:104 *980:A1 6.684 
16 *230:79 *972:A1 11.184 
17 *230:32 *962:A1 4.5 
18 *230:24 *959:A1 12.224 
*END

*D_NET *231 0.0143364
*CONN
*I *1000:A1 I *D gf180mcu_fd_sc_mcu7t5v0__nor3_1
*I *995:A1 I *D gf180mcu_fd_sc_mcu7t5v0__nor3_1
*I *986:A1 I *D gf180mcu_fd_sc_mcu7t5v0__nor3_1
*I *990:A1 I *D gf180mcu_fd_sc_mcu7t5v0__nor3_1
*I *992:A1 I *D gf180mcu_fd_sc_mcu7t5v0__nor2_1
*I *1098:Z O *D gf180mcu_fd_sc_mcu7t5v0__dlyb_1
*CAP
1 *1000:A1 0.000526332
2 *995:A1 0.000213988
3 *986:A1 7.32437e-05
4 *990:A1 0.000764127
5 *992:A1 0
6 *1098:Z 0
7 *231:23 0.00156905
8 *231:12 0.00117579
9 *231:6 0.000760742
10 *231:4 0.000628969
11 *1000:A1 *236:24 0.000113168
12 *231:6 *936:A1 9.86733e-07
13 *231:6 *236:24 0.000138826
14 *231:12 *1086:RN 0.000125283
15 *231:12 *236:12 7.75876e-05
16 *231:12 *236:24 0.000638068
17 *231:12 *240:48 3.01776e-05
18 *231:23 *236:12 6.82741e-05
19 *231:23 *240:48 8.38169e-05
20 *946:A2 *231:12 9.03002e-05
21 *951:A1 *1000:A1 0.000498827
22 *979:A2 *990:A1 5.84336e-05
23 *981:A3 *990:A1 0.000528419
24 *984:A2 *990:A1 5.47431e-06
25 *985:A1 *986:A1 6.64873e-05
26 *985:A2 *986:A1 0.000103788
27 *986:A2 *986:A1 2.88595e-06
28 *988:A1 *990:A1 2.24654e-05
29 *990:A3 *990:A1 0.00124552
30 *992:A2 *231:23 5.10196e-05
31 *995:A2 *995:A1 0.000215267
32 *995:A2 *1000:A1 0.000306249
33 *995:A2 *231:6 0.000418111
34 *995:A2 *231:12 0.000116466
35 *1085:D *231:23 0.000178541
36 *1088:CLK *1000:A1 2.13536e-05
37 *123:8 *986:A1 0.000166817
38 *123:8 *990:A1 6.06017e-05
39 *180:8 *231:23 0.000309504
40 *180:10 *231:23 0.0021415
41 *180:12 *231:23 0.000225489
42 *180:16 *990:A1 0.000259344
43 *180:16 *231:23 0.00019369
44 *183:17 *995:A1 0
45 *183:17 *231:6 0
46 *193:12 *990:A1 6.14482e-05
*RES
1 *1098:Z *231:4 4.5 
2 *231:4 *231:6 1.352 
3 *231:6 *231:12 14.096 
4 *231:12 *992:A1 4.5 
5 *231:12 *231:23 13.236 
6 *231:23 *990:A1 24.968 
7 *231:23 *986:A1 9.728 
8 *231:6 *995:A1 6.372 
9 *231:4 *1000:A1 18.076 
*END

*D_NET *232 0.00478763
*CONN
*I *1049:A2 I *D gf180mcu_fd_sc_mcu7t5v0__or2_1
*I *1047:I1 I *D gf180mcu_fd_sc_mcu7t5v0__mux2_2
*I *1028:A2 I *D gf180mcu_fd_sc_mcu7t5v0__nand2_1
*I *1046:A1 I *D gf180mcu_fd_sc_mcu7t5v0__aoi21_1
*I *1141:Z O *D gf180mcu_fd_sc_mcu7t5v0__clkbuf_1
*CAP
1 *1049:A2 8.65284e-05
2 *1047:I1 0.000171161
3 *1028:A2 0
4 *1046:A1 0.000117184
5 *1141:Z 0.00048497
6 *232:14 0.000886187
7 *232:12 0.00107441
8 *232:10 0.000705742
9 *232:10 *233:14 0
10 *1039:S *1046:A1 0
11 *1039:S *232:14 0
12 *1043:A1 *1046:A1 0.000208806
13 *1047:S *232:10 0.000100383
14 *1048:I *232:14 3.52062e-05
15 *1049:A1 *232:10 0.000102981
16 *1052:A1 *232:10 0
17 *1070:D *1049:A2 0
18 *1070:D *232:12 0
19 *76:20 *1049:A2 4.41041e-05
20 *156:14 *1046:A1 0
21 *156:16 *1046:A1 0
22 *166:10 *1046:A1 0.000405865
23 *166:10 *232:14 0.000364104
*RES
1 *1141:Z *232:10 13.368 
2 *232:10 *232:12 0.936 
3 *232:12 *232:14 7.176 
4 *232:14 *1046:A1 10.56 
5 *232:14 *1028:A2 9 
6 *232:12 *1047:I1 10.56 
7 *232:10 *1049:A2 9.936 
*END

*D_NET *233 0.00493863
*CONN
*I *1027:B I *D gf180mcu_fd_sc_mcu7t5v0__oai31_1
*I *1051:A1 I *D gf180mcu_fd_sc_mcu7t5v0__and2_1
*I *1047:I0 I *D gf180mcu_fd_sc_mcu7t5v0__mux2_2
*I *1135:Z O *D gf180mcu_fd_sc_mcu7t5v0__clkbuf_1
*CAP
1 *1027:B 0
2 *1051:A1 0.000151362
3 *1047:I0 7.59402e-05
4 *1135:Z 0.000548671
5 *233:14 0.000659327
6 *233:10 0.000980696
7 *1047:I0 *1069:RN 0
8 *1051:A1 *922:I 1.29805e-05
9 *1051:A1 *1069:RN 0
10 *1011:A1 *233:10 7.17602e-05
11 *1011:A1 *233:14 1.57479e-05
12 *1011:B *233:10 0.00124134
13 *1027:A1 *233:14 5.13977e-05
14 *1047:S *1051:A1 0
15 *1047:S *233:14 1.85523e-05
16 *1050:A1 *233:14 0.000119004
17 *1050:B2 *1051:A1 9.76253e-05
18 *1051:A2 *1051:A1 0.000122256
19 *1052:A1 *1051:A1 0.000516281
20 *1135:I *233:10 1.12327e-05
21 *76:20 *1047:I0 0.000146145
22 *76:20 *1051:A1 4.67734e-05
23 *142:21 *233:14 5.15433e-05
24 *232:10 *233:14 0
*RES
1 *1135:Z *233:10 9.804 
2 *233:10 *233:14 8.14 
3 *233:14 *1047:I0 9.936 
4 *233:14 *1051:A1 11.08 
5 *233:10 *1027:B 4.5 
*END

*D_NET *234 0.0033122
*CONN
*I *938:A1 I *D gf180mcu_fd_sc_mcu7t5v0__xnor2_1
*I *1128:Z O *D gf180mcu_fd_sc_mcu7t5v0__dlyb_1
*CAP
1 *938:A1 0.00128668
2 *1128:Z 0.00128668
3 *938:A1 *1083:RN 1.54146e-05
4 *938:A1 *240:61 0.000100752
5 *937:A1 *938:A1 0
6 *938:A2 *938:A1 0.000334894
7 *944:A2 *938:A1 0
8 *951:A4 *938:A1 1.26329e-05
9 *952:A2 *938:A1 1.85523e-05
10 *1085:D *938:A1 0.000204909
11 *1085:CLK *938:A1 4.62012e-05
12 *1111:I *938:A1 0
13 *199:44 *938:A1 5.47431e-06
*RES
1 *1128:Z *938:A1 19.712 
*END

*D_NET *235 0.0126995
*CONN
*I *1029:S I *D gf180mcu_fd_sc_mcu7t5v0__mux2_2
*I *1031:S I *D gf180mcu_fd_sc_mcu7t5v0__mux2_2
*I *1035:S I *D gf180mcu_fd_sc_mcu7t5v0__mux2_2
*I *1033:S I *D gf180mcu_fd_sc_mcu7t5v0__mux2_2
*I *1136:Z O *D gf180mcu_fd_sc_mcu7t5v0__buf_2
*CAP
1 *1029:S 0.000504922
2 *1031:S 0.000646948
3 *1035:S 0.000270214
4 *1033:S 0.000656629
5 *1136:Z 0.000860636
6 *235:12 0.000993122
7 *235:10 0.00106894
8 *1029:S *1029:I1 2.38865e-05
9 *1029:S *1062:SETN 0.00103922
10 *1033:S *1033:I1 6.8199e-07
11 *1033:S *1038:I0 0
12 *1033:S *1064:SETN 3.22108e-05
13 *1033:S *1099:I 0.00129099
14 *1033:S *253:10 0.000869746
15 *1035:S *1035:I1 9.85513e-06
16 *235:10 *1099:I 0.00173962
17 *235:12 *1099:I 0.000144873
18 *1029:I0 *235:10 0.000216974
19 *1031:I0 *1029:S 3.10673e-05
20 *1031:I0 *1031:S 0.000571507
21 *1031:I0 *1035:S 0.0011168
22 *1032:I1 *1029:S 0
23 *1032:S *1029:S 2.38656e-05
24 *1033:I0 *1033:S 3.94467e-05
25 *1036:S *1033:S 0.000493893
26 *1044:S *1031:S 0
27 *1062:D *1029:S 0
28 *1066:D *235:10 5.34599e-05
*RES
1 *1136:Z *235:10 16.696 
2 *235:10 *235:12 0.52 
3 *235:12 *1033:S 16.696 
4 *235:12 *1035:S 12.016 
5 *235:10 *1031:S 10.56 
6 *1031:S *1029:S 13.888 
*END

*D_NET *236 0.00621395
*CONN
*I *991:A2 I *D gf180mcu_fd_sc_mcu7t5v0__xnor2_1
*I *993:A2 I *D gf180mcu_fd_sc_mcu7t5v0__aoi21_1
*I *994:A3 I *D gf180mcu_fd_sc_mcu7t5v0__and3_1
*I *1142:Z O *D gf180mcu_fd_sc_mcu7t5v0__dlyb_1
*CAP
1 *991:A2 2.07914e-05
2 *993:A2 0.000192744
3 *994:A3 0
4 *1142:Z 0.000273001
5 *236:24 0.000774333
6 *236:12 0.000875382
7 *993:A2 *936:A1 0.000487793
8 *236:24 *936:A1 0.000465627
9 *236:24 *1085:RN 0.000226783
10 *236:24 *240:48 0.000183879
11 *951:A1 *236:24 0
12 *951:A4 *991:A2 0.00033912
13 *951:A4 *236:12 0.000401518
14 *992:A2 *991:A2 0.000311231
15 *992:A2 *236:12 0.000255668
16 *993:A1 *993:A2 1.57479e-05
17 *995:A2 *993:A2 5.12485e-05
18 *995:A2 *236:24 0.000279245
19 *1000:A1 *236:24 0.000113168
20 *1085:D *236:12 2.39167e-05
21 *231:6 *236:24 0.000138826
22 *231:12 *236:12 7.75876e-05
23 *231:12 *236:24 0.000638068
24 *231:23 *236:12 6.82741e-05
*RES
1 *1142:Z *236:12 16.62 
2 *236:12 *236:24 16.488 
3 *236:24 *994:A3 4.5 
4 *236:24 *993:A2 6.892 
5 *236:12 *991:A2 5.436 
*END

*D_NET *237 0.00727339
*CONN
*I *929:I I *D gf180mcu_fd_sc_mcu7t5v0__clkinv_1
*I *1012:A2 I *D gf180mcu_fd_sc_mcu7t5v0__aoi21_1
*I *930:B I *D gf180mcu_fd_sc_mcu7t5v0__aoi21_1
*I *1005:C I *D gf180mcu_fd_sc_mcu7t5v0__aoi211_1
*I *1137:Z O *D gf180mcu_fd_sc_mcu7t5v0__clkbuf_1
*CAP
1 *929:I 4.00154e-05
2 *1012:A2 0.000511111
3 *930:B 0.000202283
4 *1005:C 9.42299e-05
5 *1137:Z 3.94807e-05
6 *237:36 0.000615986
7 *237:14 0.00054521
8 *237:8 0.000353038
9 *929:I *240:8 0.000155257
10 *929:I *240:118 0.00010938
11 *929:I *241:38 0.000225403
12 *930:B *1058:RN 0
13 *930:B *241:44 8.58618e-05
14 *1005:C *1058:RN 3.4596e-05
15 *237:14 *1058:RN 0.000292626
16 *237:14 *1101:I 0
17 *237:14 *240:8 0.000329901
18 *237:14 *241:38 8.64348e-05
19 *237:14 *241:44 0.000231918
20 *237:36 *240:8 0.00017113
21 *237:36 *241:38 0.000146836
22 *925:I *1012:A2 4.67771e-06
23 *930:A1 *930:B 0.000527078
24 *930:A1 *1005:C 3.97877e-05
25 *1006:A1 *1012:A2 0.000122244
26 *1012:B *1012:A2 1.71324e-06
27 *1019:A1 *1012:A2 0.000130286
28 *1019:A1 *237:8 0.000327211
29 *1058:D *930:B 0.000289333
30 *1058:D *1005:C 0
31 *1058:D *237:14 0
32 *38:16 *1005:C 0.000491544
33 *83:12 *930:B 1.38904e-05
34 *139:10 *1005:C 0.000639166
35 *146:18 *1012:A2 8.85482e-05
36 *146:18 *237:8 0.000327211
*RES
1 *1137:Z *237:8 9.936 
2 *237:8 *237:14 7.62 
3 *237:14 *1005:C 6.476 
4 *237:14 *930:B 16.204 
5 *237:8 *237:36 1.144 
6 *237:36 *1012:A2 12.64 
7 *237:36 *929:I 10.56 
*END

*D_NET *238 0.0201094
*CONN
*I *1073:RN I *D gf180mcu_fd_sc_mcu7t5v0__dffrnq_1
*I *1078:RN I *D gf180mcu_fd_sc_mcu7t5v0__dffrnq_1
*I *1079:RN I *D gf180mcu_fd_sc_mcu7t5v0__dffrnq_1
*I *1074:RN I *D gf180mcu_fd_sc_mcu7t5v0__dffrnq_1
*I *1075:RN I *D gf180mcu_fd_sc_mcu7t5v0__dffrnq_1
*I *1076:RN I *D gf180mcu_fd_sc_mcu7t5v0__dffrnq_1
*I *1062:SETN I *D gf180mcu_fd_sc_mcu7t5v0__dffsnq_1
*I *1063:SETN I *D gf180mcu_fd_sc_mcu7t5v0__dffsnq_1
*I *1065:SETN I *D gf180mcu_fd_sc_mcu7t5v0__dffsnq_1
*I *1064:SETN I *D gf180mcu_fd_sc_mcu7t5v0__dffsnq_1
*I *1099:Z O *D gf180mcu_fd_sc_mcu7t5v0__dlyb_1
*CAP
1 *1073:RN 9.05339e-05
2 *1078:RN 0.000242958
3 *1079:RN 0
4 *1074:RN 0.000315014
5 *1075:RN 0
6 *1076:RN 0.00129431
7 *1062:SETN 0.000542967
8 *1063:SETN 0
9 *1065:SETN 0.000353106
10 *1064:SETN 0.000482353
11 *1099:Z 0.00057101
12 *238:105 0.000673874
13 *238:99 0.00145249
14 *238:81 0.00101422
15 *238:73 0.00183967
16 *238:28 0.000398133
17 *238:24 0.000739619
18 *238:20 0.00132517
19 *1062:SETN *1029:I1 1.09486e-05
20 *1062:SETN *1031:I1 0.00061761
21 *1062:SETN *1032:I0 0.000497696
22 *1062:SETN *1034:I0 0.000108145
23 *1064:SETN *1033:I1 0
24 *1065:SETN *1031:I1 0
25 *1065:SETN *253:10 0.000211037
26 *238:24 *1034:I0 6.32931e-05
27 *238:28 *1031:I1 0
28 *939:A1 *238:99 0.000323473
29 *939:A1 *238:105 4.0819e-05
30 *949:A2 *1078:RN 0
31 *949:A2 *238:105 0
32 *965:A1 *238:99 0.0006793
33 *971:A2 *1078:RN 0.000202464
34 *973:A1 *1078:RN 8.52736e-05
35 *1029:S *1062:SETN 0.00103922
36 *1031:I0 *1062:SETN 3.4596e-05
37 *1033:I0 *1064:SETN 0.000223982
38 *1033:S *1064:SETN 3.22108e-05
39 *1034:I1 *1076:RN 0.000542895
40 *1038:S *1064:SETN 4.75465e-05
41 *1073:CLK *238:99 0.000240015
42 *1073:CLK *238:105 6.17457e-05
43 *1079:D *1078:RN 8.34358e-05
44 *1079:D *238:105 0.000194522
45 *179:8 *1073:RN 1.54687e-05
46 *179:8 *238:105 0
47 *186:6 *1074:RN 6.18411e-06
48 *187:12 *1074:RN 4.79815e-05
49 *187:25 *1074:RN 0
50 *188:10 *238:73 1.54687e-05
51 *188:10 *238:81 0
52 *188:10 *238:99 0.00070182
53 *197:6 *238:73 0
54 *197:6 *238:81 9.58493e-06
55 *197:8 *238:73 0
56 *197:20 *1065:SETN 2.81522e-06
57 *197:20 *1076:RN 0.000205662
58 *197:20 *238:20 3.22108e-05
59 *197:20 *238:24 0.00019118
60 *197:20 *238:28 5.63044e-06
61 *197:58 *238:81 0.000171311
62 *229:27 *1062:SETN 1.85524e-05
63 *229:31 *1062:SETN 5.02052e-05
64 *229:31 *1076:RN 0.000107648
65 *229:31 *238:24 3.38238e-06
66 *229:33 *1064:SETN 2.73037e-05
67 *229:33 *1065:SETN 0
68 *229:33 *1076:RN 0.000460013
69 *229:33 *238:20 0.000568431
70 *230:79 *1078:RN 0.00079293
*RES
1 *1099:Z *1064:SETN 12.952 
2 *1099:Z *238:20 6.06 
3 *238:20 *238:24 5.852 
4 *238:24 *238:28 4.812 
5 *238:28 *1065:SETN 7.516 
6 *238:28 *1063:SETN 4.5 
7 *238:24 *1062:SETN 16.072 
8 *238:20 *1076:RN 22.756 
9 *1076:RN *238:73 5.852 
10 *238:73 *238:81 14.2 
11 *238:81 *1075:RN 4.5 
12 *238:81 *1074:RN 6.892 
13 *238:73 *238:99 14.484 
14 *238:99 *238:105 7.828 
15 *238:105 *1079:RN 4.5 
16 *238:105 *1078:RN 7.828 
17 *238:99 *1073:RN 9.52 
*END

*D_NET *239 0.0232863
*CONN
*I *1072:RN I *D gf180mcu_fd_sc_mcu7t5v0__dffrnq_1
*I *1069:RN I *D gf180mcu_fd_sc_mcu7t5v0__dffrnq_1
*I *1070:RN I *D gf180mcu_fd_sc_mcu7t5v0__dffrnq_1
*I *1061:SETN I *D gf180mcu_fd_sc_mcu7t5v0__dffsnq_1
*I *1068:SETN I *D gf180mcu_fd_sc_mcu7t5v0__dffsnq_1
*I *1066:SETN I *D gf180mcu_fd_sc_mcu7t5v0__dffsnq_1
*I *1067:SETN I *D gf180mcu_fd_sc_mcu7t5v0__dffsnq_1
*I *1071:RN I *D gf180mcu_fd_sc_mcu7t5v0__dffrnq_1
*I *1100:Z O *D gf180mcu_fd_sc_mcu7t5v0__dlyb_1
*CAP
1 *1072:RN 0.00142144
2 *1069:RN 0.000353698
3 *1070:RN 4.69862e-05
4 *1061:SETN 0.00059982
5 *1068:SETN 0
6 *1066:SETN 0
7 *1067:SETN 0.000327444
8 *1071:RN 0.000277916
9 *1100:Z 0
10 *239:76 0.00256929
11 *239:49 0.00119981
12 *239:27 0.000392193
13 *239:23 0.00155195
14 *239:21 0.000983608
15 *239:19 0.00113474
16 *239:4 0.000569097
17 *1061:SETN *1030:I0 3.78191e-05
18 *1067:SETN *1037:I1 0.000139043
19 *1067:SETN *1040:I0 0.000245989
20 *1069:RN *922:I 5.06024e-05
21 *1071:RN *249:8 0
22 *1072:RN *1002:A2 0.000344378
23 *1072:RN *1003:A2 0
24 *1072:RN *241:38 0
25 *1072:RN *247:8 0.000110255
26 *239:19 *1099:I 0.000228549
27 *239:19 *241:8 1.40331e-05
28 *239:21 *1099:I 0.000154844
29 *239:23 *1099:I 0.00412309
30 *239:27 *1099:I 0.000179237
31 *239:49 *1040:I0 0.000634158
32 *239:76 *922:I 5.85372e-05
33 *239:76 *1008:A2 7.36988e-05
34 *239:76 *241:8 6.89385e-06
35 *239:76 *249:8 0.000162893
36 *239:76 *249:21 0.000201762
37 *924:I *239:19 9.27912e-06
38 *924:I *239:21 5.56167e-06
39 *924:I *239:23 3.70909e-06
40 *1007:A3 *1072:RN 7.98863e-05
41 *1008:A1 *1072:RN 2.2517e-05
42 *1009:A1 *1069:RN 8.29965e-06
43 *1010:A1 *1072:RN 0.000113016
44 *1010:B *1072:RN 7.17602e-05
45 *1010:B *239:76 7.56248e-06
46 *1011:A1 *1072:RN 0
47 *1011:A3 *1072:RN 1.63326e-05
48 *1011:B *1072:RN 0
49 *1025:A2 *1061:SETN 3.22108e-05
50 *1026:A3 *1072:RN 7.11788e-06
51 *1040:I1 *239:23 4.03728e-05
52 *1040:I1 *239:27 8.18624e-06
53 *1040:I1 *239:49 3.52824e-05
54 *1041:A2 *1061:SETN 0.000103788
55 *1047:I0 *1069:RN 0
56 *1050:A3 *1072:RN 8.02494e-05
57 *1050:A3 *239:76 0.000548443
58 *1051:A1 *1069:RN 0
59 *1051:A2 *239:76 0
60 *1053:A2 *239:76 3.83248e-05
61 *1054:A2 *239:76 1.09486e-05
62 *1071:D *239:23 3.71683e-05
63 *1117:I *1071:RN 0
64 *1126:I *1067:SETN 0.000654535
65 *1141:I *1069:RN 0.000105389
66 *40:65 *1072:RN 0
67 *58:10 *1071:RN 0
68 *58:10 *239:19 6.65172e-05
69 *74:29 *1072:RN 0
70 *76:16 *239:76 0.00013995
71 *77:12 *239:76 0.000256274
72 *142:10 *1069:RN 0.000728808
73 *144:19 *1072:RN 0.000114711
74 *156:6 *1061:SETN 0.000354865
75 *156:6 *239:49 0.000103933
76 *156:12 *239:49 9.49964e-05
77 *166:10 *1061:SETN 0.000631576
78 *166:10 *239:49 0.000193782
79 *173:8 *239:76 3.60231e-05
80 *229:10 *239:49 0.000331178
*RES
1 *1100:Z *239:4 4.5 
2 *239:4 *1071:RN 6.58 
3 *239:4 *239:19 6.996 
4 *239:19 *239:21 0.52 
5 *239:21 *239:23 11.128 
6 *239:23 *239:27 5.02 
7 *239:27 *1067:SETN 8.036 
8 *239:27 *1066:SETN 4.5 
9 *239:23 *239:49 10.844 
10 *239:49 *1068:SETN 4.5 
11 *239:49 *1061:SETN 11.156 
12 *239:21 *1070:RN 9.312 
13 *239:19 *239:76 12.3 
14 *239:76 *1069:RN 17.14 
15 *239:76 *1072:RN 24.628 
*END

*D_NET *240 0.032878
*CONN
*I *1060:RN I *D gf180mcu_fd_sc_mcu7t5v0__dffrnq_1
*I *1059:RN I *D gf180mcu_fd_sc_mcu7t5v0__dffrnq_1
*I *1058:RN I *D gf180mcu_fd_sc_mcu7t5v0__dffrnq_1
*I *1085:RN I *D gf180mcu_fd_sc_mcu7t5v0__dffrnq_1
*I *1081:RN I *D gf180mcu_fd_sc_mcu7t5v0__dffrnq_1
*I *1084:RN I *D gf180mcu_fd_sc_mcu7t5v0__dffrnq_1
*I *1082:RN I *D gf180mcu_fd_sc_mcu7t5v0__dffrnq_1
*I *1083:RN I *D gf180mcu_fd_sc_mcu7t5v0__dffrnq_1
*I *1080:RN I *D gf180mcu_fd_sc_mcu7t5v0__dffrnq_1
*I *1077:RN I *D gf180mcu_fd_sc_mcu7t5v0__dffrnq_1
*I *1101:Z O *D gf180mcu_fd_sc_mcu7t5v0__dlyb_1
*CAP
1 *1060:RN 0.000454765
2 *1059:RN 0
3 *1058:RN 0.000170172
4 *1085:RN 0.000398792
5 *1081:RN 0.000482677
6 *1084:RN 0.00025882
7 *1082:RN 0.000213152
8 *1083:RN 3.47077e-05
9 *1080:RN 0.000728447
10 *1077:RN 1.38379e-05
11 *1101:Z 0
12 *240:118 0.00190823
13 *240:65 0.000540919
14 *240:61 0.00132159
15 *240:48 0.00123943
16 *240:44 0.00157413
17 *240:25 0.00156338
18 *240:16 0.0013185
19 *240:8 0.00165108
20 *240:6 0.00172406
21 *240:8 *241:44 4.17589e-06
22 *240:16 *1087:RN 0.000238797
23 *240:16 *241:44 0.000309712
24 *240:16 *241:46 4.38131e-05
25 *240:118 *241:38 7.06999e-05
26 *918:I *1060:RN 0
27 *929:I *240:8 0.000155257
28 *929:I *240:118 0.00010938
29 *930:A1 *1058:RN 2.63994e-05
30 *930:B *1058:RN 0
31 *934:A1 *1080:RN 9.74836e-05
32 *938:A1 *1083:RN 1.54146e-05
33 *938:A1 *240:61 0.000100752
34 *938:A2 *1083:RN 3.4596e-05
35 *947:A1 *1080:RN 0.000359533
36 *947:A2 *240:44 0.00116086
37 *950:A2 *240:16 0.000701132
38 *951:A1 *1085:RN 0
39 *951:A1 *240:44 0.000865654
40 *951:A2 *240:44 0.000865654
41 *951:A3 *1077:RN 5.13977e-05
42 *951:A3 *240:25 0.000423983
43 *951:A3 *240:44 3.65102e-05
44 *954:A2 *240:16 0.00106208
45 *980:A2 *1082:RN 0
46 *982:A1 *1084:RN 3.03977e-05
47 *986:A2 *240:61 0.000510584
48 *987:A1 *1084:RN 5.63044e-06
49 *987:B *1084:RN 3.57634e-06
50 *988:A3 *1084:RN 4.91701e-05
51 *989:A1 *1080:RN 0.000263725
52 *989:A2 *1080:RN 0.000272942
53 *993:B *1085:RN 0.000113027
54 *994:A1 *1085:RN 1.59524e-05
55 *995:A2 *1085:RN 3.03865e-05
56 *1005:C *1058:RN 3.4596e-05
57 *1018:A3 *240:118 2.88051e-05
58 *1019:A2 *240:8 7.76501e-06
59 *1058:D *1058:RN 0
60 *1080:CLK *1080:RN 0.000719217
61 *1085:CLK *240:61 3.65102e-05
62 *1097:I *240:16 0.000204966
63 *25:18 *1077:RN 4.18042e-05
64 *25:18 *240:25 0.000124557
65 *25:18 *240:44 0.000409834
66 *25:18 *240:48 0
67 *25:18 *240:61 0
68 *25:18 *240:65 0
69 *40:14 *1060:RN 0.000447112
70 *40:45 *1060:RN 0
71 *83:12 *240:16 0
72 *105:14 *1080:RN 0.000510573
73 *105:14 *240:16 0
74 *105:22 *240:16 0.000365717
75 *112:14 *1080:RN 0.000100581
76 *145:14 *240:118 0
77 *146:18 *240:8 0.000325803
78 *146:50 *240:8 0
79 *146:50 *240:118 0
80 *180:8 *240:48 0.000355296
81 *180:10 *240:48 0.000107648
82 *180:10 *240:61 3.94674e-05
83 *182:10 *1085:RN 7.87395e-06
84 *183:17 *1085:RN 0.000723738
85 *184:10 *240:16 0.000219202
86 *184:14 *240:16 8.52478e-05
87 *189:8 *1080:RN 0.00024467
88 *189:8 *240:16 0.000510594
89 *189:18 *1080:RN 4.26239e-05
90 *193:6 *1081:RN 0
91 *193:10 *1081:RN 0.000101448
92 *193:34 *1084:RN 1.36398e-06
93 *193:34 *240:61 0.000397047
94 *193:34 *240:65 0.000283521
95 *194:12 *1081:RN 0.000256285
96 *194:12 *1084:RN 2.04597e-06
97 *199:14 *1080:RN 0.000167616
98 *199:44 *1083:RN 2.38773e-05
99 *199:44 *240:61 1.26329e-05
100 *199:48 *240:61 0.000851532
101 *199:52 *240:61 0.000124679
102 *226:14 *240:118 1.80678e-05
103 *231:12 *240:48 3.01776e-05
104 *231:23 *240:48 8.38169e-05
105 *236:24 *1085:RN 0.000226783
106 *236:24 *240:48 0.000183879
107 *237:14 *1058:RN 0.000292626
108 *237:14 *240:8 0.000329901
109 *237:36 *240:8 0.00017113
*RES
1 *1101:Z *240:6 9 
2 *240:6 *240:8 4.264 
3 *240:8 *240:16 20.62 
4 *240:16 *1077:RN 4.812 
5 *240:16 *240:25 1.352 
6 *240:25 *1080:RN 24.316 
7 *240:25 *240:44 15.524 
8 *240:44 *240:48 8.14 
9 *240:48 *1083:RN 4.812 
10 *240:48 *240:61 14.068 
11 *240:61 *240:65 5.228 
12 *240:65 *1082:RN 6.372 
13 *240:65 *1084:RN 6.06 
14 *240:61 *1081:RN 13.264 
15 *240:44 *1085:RN 12.952 
16 *240:8 *1058:RN 10.352 
17 *240:6 *240:118 18.152 
18 *240:118 *1059:RN 9 
19 *240:118 *1060:RN 12.328 
*END

*D_NET *241 0.0360634
*CONN
*I *1101:I I *D gf180mcu_fd_sc_mcu7t5v0__dlyb_1
*I *1089:RN I *D gf180mcu_fd_sc_mcu7t5v0__dffrnq_1
*I *1088:RN I *D gf180mcu_fd_sc_mcu7t5v0__dffrnq_1
*I *1086:RN I *D gf180mcu_fd_sc_mcu7t5v0__dffrnq_1
*I *1087:RN I *D gf180mcu_fd_sc_mcu7t5v0__dffrnq_1
*I *1100:I I *D gf180mcu_fd_sc_mcu7t5v0__dlyb_1
*I *1099:I I *D gf180mcu_fd_sc_mcu7t5v0__dlyb_1
*I *1102:Z O *D gf180mcu_fd_sc_mcu7t5v0__dlyb_1
*CAP
1 *1101:I 6.24224e-05
2 *1089:RN 0.000406596
3 *1088:RN 0.000201389
4 *1086:RN 0.00074807
5 *1087:RN 0.000105079
6 *1100:I 0.000374132
7 *1099:I 0.00193337
8 *1102:Z 0
9 *241:59 0.00258504
10 *241:46 0.00178575
11 *241:44 0.00084822
12 *241:38 0.0040641
13 *241:8 0.00246561
14 *241:4 0.00376325
15 *1099:I *1035:I1 0
16 *1099:I *1038:I0 0
17 *1099:I *1044:I0 0.000358488
18 *241:8 *249:8 5.61477e-05
19 *241:38 *1002:A2 2.90189e-05
20 *929:I *241:38 0.000225403
21 *930:A1 *241:44 0.000318754
22 *930:A2 *1089:RN 0.000107832
23 *930:A2 *241:59 4.4504e-06
24 *930:B *241:44 8.58618e-05
25 *995:A2 *1086:RN 8.88029e-05
26 *998:A1 *241:59 0
27 *1000:A2 *1088:RN 0
28 *1002:A1 *241:38 0.000296566
29 *1006:A1 *241:38 1.42358e-05
30 *1006:A2 *241:38 0.000112376
31 *1006:A2 *241:44 2.80993e-05
32 *1008:A1 *241:38 0.00106072
33 *1010:B *241:8 3.4596e-05
34 *1010:B *241:38 0.00111937
35 *1033:S *1099:I 0.00129099
36 *1040:I1 *1099:I 2.53976e-05
37 *1043:A2 *1099:I 8.21644e-05
38 *1058:D *1101:I 0.000179194
39 *1058:D *241:44 2.55295e-05
40 *1066:D *1099:I 3.71745e-06
41 *1072:RN *241:38 0
42 *1086:D *1086:RN 1.89124e-05
43 *1088:CLK *1086:RN 4.33349e-05
44 *1102:I *1100:I 4.3569e-05
45 *1114:I *241:38 0
46 *1117:I *1100:I 0
47 *1127:I *241:38 0
48 *1139:I *241:38 7.16472e-05
49 *39:20 *241:38 0.00033722
50 *40:45 *241:38 0
51 *58:10 *1100:I 5.94665e-05
52 *58:10 *241:8 0.000208037
53 *58:10 *241:38 1.07369e-05
54 *74:8 *241:38 3.71367e-05
55 *74:51 *241:38 8.86232e-05
56 *83:12 *1087:RN 0.000175956
57 *83:12 *241:44 6.96367e-05
58 *83:12 *241:46 2.83159e-05
59 *132:19 *1086:RN 0.000120138
60 *139:10 *241:44 0.000118062
61 *184:10 *241:59 4.84242e-05
62 *185:10 *1086:RN 0.000534077
63 *185:10 *1088:RN 0
64 *185:14 *1086:RN 0.00131058
65 *200:6 *241:59 0
66 *200:8 *241:59 0
67 *226:14 *241:38 0
68 *231:12 *1086:RN 0.000125283
69 *235:10 *1099:I 0.00173962
70 *235:12 *1099:I 0.000144873
71 *237:14 *1101:I 0
72 *237:14 *241:38 8.64348e-05
73 *237:14 *241:44 0.000231918
74 *237:36 *241:38 0.000146836
75 *239:19 *1099:I 0.000228549
76 *239:19 *241:8 1.40331e-05
77 *239:21 *1099:I 0.000154844
78 *239:23 *1099:I 0.00412309
79 *239:27 *1099:I 0.000179237
80 *239:76 *241:8 6.89385e-06
81 *240:8 *241:44 4.17589e-06
82 *240:16 *1087:RN 0.000238797
83 *240:16 *241:44 0.000309712
84 *240:16 *241:46 4.38131e-05
85 *240:118 *241:38 7.06999e-05
*RES
1 *1102:Z *241:4 4.5 
2 *241:4 *241:8 6.06 
3 *241:8 *1099:I 33.024 
4 *241:8 *1100:I 11.496 
5 *241:4 *241:38 35.076 
6 *241:38 *241:44 5.512 
7 *241:44 *241:46 0.52 
8 *241:46 *1087:RN 11.184 
9 *241:46 *241:59 15.42 
10 *241:59 *1086:RN 21.924 
11 *241:59 *1088:RN 5.748 
12 *241:44 *1089:RN 11.808 
13 *241:38 *1101:I 9.52 
*END

*D_NET *242 0.00121003
*CONN
*I *948:A1 I *D gf180mcu_fd_sc_mcu7t5v0__xor2_1
*I *1129:Z O *D gf180mcu_fd_sc_mcu7t5v0__dlyb_1
*CAP
1 *948:A1 0.00029211
2 *1129:Z 0.00029211
3 *934:A1 *948:A1 0.000522341
4 *941:A1 *948:A1 0
5 *942:A2 *948:A1 0.000103468
*RES
1 *1129:Z *948:A1 20.704 
*END

*D_NET *243 0.00103022
*CONN
*I *944:A1 I *D gf180mcu_fd_sc_mcu7t5v0__xor2_1
*I *1130:Z O *D gf180mcu_fd_sc_mcu7t5v0__dlyb_1
*CAP
1 *944:A1 0.00022505
2 *1130:Z 0.00022505
3 *944:A1 *946:A1 0.000580119
4 *944:A2 *944:A1 0
*RES
1 *1130:Z *944:A1 11.496 
*END

*D_NET *244 0.00374613
*CONN
*I *946:A1 I *D gf180mcu_fd_sc_mcu7t5v0__xor2_1
*I *1131:Z O *D gf180mcu_fd_sc_mcu7t5v0__dlyb_1
*CAP
1 *946:A1 0.000857043
2 *1131:Z 0.000857043
3 *944:A1 *946:A1 0.000580119
4 *944:A2 *946:A1 1.70957e-06
5 *951:A1 *946:A1 0.00101635
6 *951:A2 *946:A1 8.40102e-05
7 *993:B *946:A1 3.39799e-05
8 *1111:I *946:A1 0
9 *1128:I *946:A1 0
10 *1130:I *946:A1 0
11 *25:18 *946:A1 0.000315871
*RES
1 *1131:Z *946:A1 17.736 
*END

*D_NET *245 0.00759095
*CONN
*I *936:A1 I *D gf180mcu_fd_sc_mcu7t5v0__xnor2_1
*I *1132:Z O *D gf180mcu_fd_sc_mcu7t5v0__dlyb_1
*CAP
1 *936:A1 0.00156227
2 *1132:Z 0.00156227
3 *936:A1 *931:A1 8.75081e-05
4 *931:A2 *936:A1 0
5 *951:A1 *936:A1 0.000250594
6 *993:A2 *936:A1 0.000487793
7 *995:A2 *936:A1 0.000636134
8 *995:A3 *936:A1 0.000265539
9 *996:A2 *936:A1 0.000230126
10 *1087:D *936:A1 0
11 *1087:CLK *936:A1 0.00028101
12 *1093:I *936:A1 0.000116624
13 *1098:I *936:A1 3.0917e-05
14 *105:22 *936:A1 4.07478e-05
15 *132:8 *936:A1 0.00123061
16 *184:14 *936:A1 0.000102348
17 *196:15 *936:A1 3.50983e-05
18 *196:19 *936:A1 0.000111423
19 *200:43 *936:A1 9.33122e-05
20 *231:6 *936:A1 9.86733e-07
21 *236:24 *936:A1 0.000465627
*RES
1 *1132:Z *936:A1 35.368 
*END

*D_NET *246 0.00107461
*CONN
*I *931:A1 I *D gf180mcu_fd_sc_mcu7t5v0__xor2_1
*I *1133:Z O *D gf180mcu_fd_sc_mcu7t5v0__dlyb_1
*CAP
1 *931:A1 0.000474766
2 *1133:Z 0.000474766
3 *931:A2 *931:A1 2.73715e-06
4 *936:A1 *931:A1 8.75081e-05
5 *1131:I *931:A1 0
6 *1132:I *931:A1 3.48351e-05
*RES
1 *1133:Z *931:A1 12.848 
*END

*D_NET *247 0.0047084
*CONN
*I *1002:A2 I *D gf180mcu_fd_sc_mcu7t5v0__nand2_1
*I *1056:C I *D gf180mcu_fd_sc_mcu7t5v0__oai211_1
*I *1057:A1 I *D gf180mcu_fd_sc_mcu7t5v0__oai21_1
*I *1072:Q O *D gf180mcu_fd_sc_mcu7t5v0__dffrnq_1
*CAP
1 *1002:A2 0.000241068
2 *1056:C 0.000178544
3 *1057:A1 0.000212847
4 *1072:Q 0
5 *247:8 0.000629523
6 *247:6 0.0004792
7 *1002:A1 *1002:A2 7.87395e-06
8 *1004:B2 *1002:A2 3.3698e-05
9 *1007:A3 *1002:A2 6.43966e-06
10 *1026:A1 *1056:C 0.000106908
11 *1026:A2 *1056:C 2.21341e-06
12 *1026:A3 *1057:A1 0
13 *1026:A3 *247:8 0
14 *1056:B *1056:C 3.48294e-05
15 *1057:A2 *1057:A1 2.14739e-05
16 *1057:B *1056:C 0.00109786
17 *1072:D *1057:A1 0.000419276
18 *1072:RN *1002:A2 0.000344378
19 *1072:RN *247:8 0.000110255
20 *39:32 *1056:C 0.000185295
21 *74:14 *1056:C 1.26329e-05
22 *157:6 *1056:C 0.000193782
23 *157:6 *1057:A1 0.000171397
24 *225:10 *1002:A2 4.83728e-05
25 *225:10 *1057:A1 4.9065e-05
26 *225:10 *247:8 9.24493e-05
27 *241:38 *1002:A2 2.90189e-05
*RES
1 *1072:Q *247:6 9 
2 *247:6 *247:8 1.976 
3 *247:8 *1057:A1 11.288 
4 *247:8 *1056:C 12.224 
5 *247:6 *1002:A2 11.496 
*END

*D_NET *248 0.0017683
*CONN
*I *922:I I *D gf180mcu_fd_sc_mcu7t5v0__clkinv_1
*I *1069:Q O *D gf180mcu_fd_sc_mcu7t5v0__dffrnq_1
*CAP
1 *922:I 0.000501373
2 *1069:Q 0.000501373
3 *922:I *1008:A2 0.000337769
4 *1051:A1 *922:I 1.29805e-05
5 *1052:A1 *922:I 0
6 *1069:RN *922:I 5.06024e-05
7 *76:10 *922:I 7.82526e-05
8 *77:12 *922:I 0
9 *142:10 *922:I 0.000227415
10 *201:8 *922:I 0
11 *239:76 *922:I 5.85372e-05
*RES
1 *1069:Q *922:I 22.16 
*END

*D_NET *249 0.00410445
*CONN
*I *1008:A2 I *D gf180mcu_fd_sc_mcu7t5v0__xor2_1
*I *923:I I *D gf180mcu_fd_sc_mcu7t5v0__clkinv_1
*I *1053:A1 I *D gf180mcu_fd_sc_mcu7t5v0__nand2_1
*I *1070:Q O *D gf180mcu_fd_sc_mcu7t5v0__dffrnq_1
*CAP
1 *1008:A2 0.000154635
2 *923:I 0
3 *1053:A1 0.000249248
4 *1070:Q 0.000292243
5 *249:21 0.000266753
6 *249:8 0.00065361
7 *922:I *1008:A2 0.000337769
8 *924:I *1053:A1 1.98069e-05
9 *1010:B *1008:A2 0.00106072
10 *1010:B *249:8 0.000184188
11 *1010:B *249:21 0.00031371
12 *1054:A1 *1053:A1 2.80885e-05
13 *1071:RN *249:8 0
14 *77:12 *1008:A2 4.91701e-05
15 *239:76 *1008:A2 7.36988e-05
16 *239:76 *249:8 0.000162893
17 *239:76 *249:21 0.000201762
18 *241:8 *249:8 5.61477e-05
*RES
1 *1070:Q *249:8 7.204 
2 *249:8 *1053:A1 15.268 
3 *249:8 *249:21 2.184 
4 *249:21 *923:I 4.5 
5 *249:21 *1008:A2 7.62 
*END

*D_NET *250 0.00866022
*CONN
*I *1055:A1 I *D gf180mcu_fd_sc_mcu7t5v0__nand2_1
*I *1003:A2 I *D gf180mcu_fd_sc_mcu7t5v0__aoi211_1
*I *1030:I0 I *D gf180mcu_fd_sc_mcu7t5v0__mux2_2
*I *1061:Q O *D gf180mcu_fd_sc_mcu7t5v0__dffsnq_1
*CAP
1 *1055:A1 0
2 *1003:A2 0.000483171
3 *1030:I0 0.000941846
4 *1061:Q 0.00191225
5 *250:30 0.00145358
6 *1030:I0 *1041:B 0.000175311
7 *1007:A1 *1003:A2 0.00034255
8 *1007:A2 *1003:A2 0.000881022
9 *1007:A3 *1003:A2 3.18325e-05
10 *1011:B *1003:A2 0.000113027
11 *1029:I0 *1030:I0 0
12 *1030:S *1030:I0 0.00103521
13 *1041:A2 *1030:I0 8.44565e-06
14 *1055:A2 *1003:A2 0.00027345
15 *1057:B *1003:A2 3.18325e-05
16 *1061:SETN *1030:I0 3.78191e-05
17 *1072:RN *1003:A2 0
18 *1072:CLK *250:30 0.000305216
19 *1135:I *1003:A2 6.18411e-06
20 *1135:I *250:30 0
21 *166:10 *1030:I0 0.000231744
22 *198:15 *1030:I0 0
23 *198:17 *250:30 0.000264627
24 *225:10 *1003:A2 0.000131101
*RES
1 *1061:Q *1030:I0 26.944 
2 *1061:Q *250:30 22.028 
3 *250:30 *1003:A2 20.052 
4 *250:30 *1055:A1 4.5 
*END

*D_NET *251 0.00181822
*CONN
*I *1029:I1 I *D gf180mcu_fd_sc_mcu7t5v0__mux2_2
*I *1032:I0 I *D gf180mcu_fd_sc_mcu7t5v0__mux2_2
*I *1062:Q O *D gf180mcu_fd_sc_mcu7t5v0__dffsnq_1
*CAP
1 *1029:I1 0.000271637
2 *1032:I0 0.000243571
3 *1062:Q 7.35625e-05
4 *251:8 0.000588771
5 *1029:I0 *1032:I0 0
6 *1029:I0 *251:8 0
7 *1029:S *1029:I1 2.38865e-05
8 *1062:SETN *1029:I1 1.09486e-05
9 *1062:SETN *1032:I0 0.000497696
10 *198:36 *1029:I1 0
11 *229:27 *1032:I0 7.18709e-05
12 *229:27 *251:8 3.62739e-05
*RES
1 *1062:Q *251:8 9.728 
2 *251:8 *1032:I0 11.496 
3 *251:8 *1029:I1 10.976 
*END

*D_NET *252 0.00289996
*CONN
*I *1034:I0 I *D gf180mcu_fd_sc_mcu7t5v0__mux2_2
*I *1031:I1 I *D gf180mcu_fd_sc_mcu7t5v0__mux2_2
*I *1063:Q O *D gf180mcu_fd_sc_mcu7t5v0__dffsnq_1
*CAP
1 *1034:I0 0.00026837
2 *1031:I1 0.000205442
3 *1063:Q 0
4 *252:4 0.000473812
5 *1032:I1 *1031:I1 7.87395e-06
6 *1032:I1 *1034:I0 4.84242e-05
7 *1062:SETN *1031:I1 0.00061761
8 *1062:SETN *1034:I0 0.000108145
9 *1065:SETN *1031:I1 0
10 *229:31 *1034:I0 0.00110699
11 *238:24 *1034:I0 6.32931e-05
12 *238:28 *1031:I1 0
*RES
1 *1063:Q *252:4 4.5 
2 *252:4 *1031:I1 15.58 
3 *252:4 *1034:I0 17.244 
*END

*D_NET *253 0.005574
*CONN
*I *1033:I1 I *D gf180mcu_fd_sc_mcu7t5v0__mux2_2
*I *1036:I0 I *D gf180mcu_fd_sc_mcu7t5v0__mux2_2
*I *1064:Q O *D gf180mcu_fd_sc_mcu7t5v0__dffsnq_1
*CAP
1 *1033:I1 4.17099e-05
2 *1036:I0 0.000523876
3 *1064:Q 0.000625501
4 *253:10 0.00119109
5 *253:10 *1038:I0 0.000247057
6 *1033:S *1033:I1 6.8199e-07
7 *1033:S *253:10 0.000869746
8 *1034:I1 *1033:I1 2.38773e-05
9 *1036:S *1036:I0 0.000641254
10 *1036:S *253:10 0.000160438
11 *1038:S *253:10 0.000133254
12 *1064:SETN *1033:I1 0
13 *1064:CLK *1036:I0 0.000897324
14 *1065:SETN *253:10 0.000211037
15 *229:33 *253:10 7.15269e-06
*RES
1 *1064:Q *253:10 15.24 
2 *253:10 *1036:I0 14.824 
3 *253:10 *1033:I1 9.312 
*END

*D_NET *254 0.00228899
*CONN
*I *1035:I1 I *D gf180mcu_fd_sc_mcu7t5v0__mux2_2
*I *1038:I0 I *D gf180mcu_fd_sc_mcu7t5v0__mux2_2
*I *1065:Q O *D gf180mcu_fd_sc_mcu7t5v0__dffsnq_1
*CAP
1 *1035:I1 0.00026606
2 *1038:I0 0.000404192
3 *1065:Q 0
4 *254:6 0.000670252
5 *1033:S *1038:I0 0
6 *1035:S *1035:I1 9.85513e-06
7 *1036:I1 *1035:I1 7.42486e-05
8 *1036:I1 *1038:I0 0.000263547
9 *1038:S *1038:I0 0.00034255
10 *1099:I *1035:I1 0
11 *1099:I *1038:I0 0
12 *1121:I *1038:I0 1.12327e-05
13 *253:10 *1038:I0 0.000247057
*RES
1 *1065:Q *254:6 9 
2 *254:6 *1038:I0 13.784 
3 *254:6 *1035:I1 11.08 
*END

*D_NET *255 0.00546089
*CONN
*I *1040:I0 I *D gf180mcu_fd_sc_mcu7t5v0__mux2_2
*I *1037:I1 I *D gf180mcu_fd_sc_mcu7t5v0__mux2_2
*I *1066:Q O *D gf180mcu_fd_sc_mcu7t5v0__dffsnq_1
*CAP
1 *1040:I0 0.000427531
2 *1037:I1 0.000867231
3 *1066:Q 0.000229633
4 *255:8 0.00152439
5 *1037:I1 *256:8 0
6 *255:8 *1044:I0 2.46717e-05
7 *255:8 *256:8 1.71326e-05
8 *1037:I0 *1037:I1 0.000522341
9 *1039:S *255:8 1.28462e-05
10 *1040:I1 *1040:I0 3.90096e-05
11 *1040:I1 *255:8 0.000262258
12 *1042:A1 *1037:I1 0.000472205
13 *1067:SETN *1037:I1 0.000139043
14 *1067:SETN *1040:I0 0.000245989
15 *1123:I *1037:I1 2.38773e-05
16 *1126:I *1037:I1 1.85722e-05
17 *198:77 *1037:I1 0
18 *239:49 *1040:I0 0.000634158
*RES
1 *1066:Q *255:8 6.788 
2 *255:8 *1037:I1 22.236 
3 *255:8 *1040:I0 8.66 
*END

*D_NET *256 0.00324108
*CONN
*I *1044:I0 I *D gf180mcu_fd_sc_mcu7t5v0__mux2_2
*I *1039:I1 I *D gf180mcu_fd_sc_mcu7t5v0__mux2_2
*I *1067:Q O *D gf180mcu_fd_sc_mcu7t5v0__dffsnq_1
*CAP
1 *1044:I0 0.000860547
2 *1039:I1 0
3 *1067:Q 0.000192054
4 *256:8 0.0010526
5 *1037:I1 *256:8 0
6 *1039:I0 *256:8 2.11493e-05
7 *1039:S *1044:I0 1.60338e-05
8 *1039:S *256:8 7.87395e-06
9 *1042:A1 *1044:I0 0
10 *1043:A2 *1044:I0 0.000510573
11 *1045:A1 *1044:I0 0.000179953
12 *1099:I *1044:I0 0.000358488
13 *198:77 *1044:I0 0
14 *255:8 *1044:I0 2.46717e-05
15 *255:8 *256:8 1.71326e-05
*RES
1 *1067:Q *256:8 5.956 
2 *256:8 *1039:I1 4.5 
3 *256:8 *1044:I0 21.404 
*END

*D_NET *257 0.00146622
*CONN
*I *1041:B I *D gf180mcu_fd_sc_mcu7t5v0__aoi21_1
*I *1068:Q O *D gf180mcu_fd_sc_mcu7t5v0__dffsnq_1
*CAP
1 *1041:B 0.000493003
2 *1068:Q 0.000493003
3 *1030:I0 *1041:B 0.000175311
4 *1069:CLK *1041:B 0.000171329
5 *166:10 *1041:B 0
6 *198:15 *1041:B 0.000115166
7 *229:10 *1041:B 1.84122e-05
*RES
1 *1068:Q *1041:B 13.784 
*END
