*SPEF "ieee 1481-1999"
*DESIGN "udma_uart_rx"
*DATE "12:42:46 Sunday July 26, 2026"
*VENDOR "The OpenROAD Project"
*PROGRAM "OpenROAD"
*VERSION "dcf36133a369abc8f3c5e5738cd4d82e4903c0e0"
*DESIGN_FLOW "NAME_SCOPE LOCAL" "PIN_CAP NONE"
*DIVIDER /
*DELIMITER :
*BUS_DELIMITER []
*T_UNIT 1 NS
*C_UNIT 1 PF
*R_UNIT 1 OHM
*L_UNIT 1 HENRY

*NAME_MAP
*3 busy_o
*4 cfg_bits_i[0]
*5 cfg_bits_i[1]
*6 cfg_div_i[0]
*7 cfg_div_i[10]
*8 cfg_div_i[11]
*9 cfg_div_i[12]
*10 cfg_div_i[13]
*11 cfg_div_i[14]
*12 cfg_div_i[15]
*13 cfg_div_i[1]
*14 cfg_div_i[2]
*15 cfg_div_i[3]
*16 cfg_div_i[4]
*17 cfg_div_i[5]
*18 cfg_div_i[6]
*19 cfg_div_i[7]
*20 cfg_div_i[8]
*21 cfg_div_i[9]
*22 cfg_en_i
*23 cfg_parity_en_i
*24 cfg_stop_bits_i
*25 char_event_o
*26 clk_i
*27 err_overflow_o
*28 err_parity_o
*29 rstn_i
*30 rx_data_o[0]
*31 rx_data_o[1]
*32 rx_data_o[2]
*33 rx_data_o[3]
*34 rx_data_o[4]
*35 rx_data_o[5]
*36 rx_data_o[6]
*37 rx_data_o[7]
*38 rx_i
*39 rx_ready_i
*40 rx_valid_o
*41 CS\[0\]
*42 CS\[1\]
*43 CS\[2\]
*44 _000_
*45 _001_
*46 _002_
*47 _003_
*48 _004_
*49 _005_
*50 _006_
*51 _007_
*52 _008_
*53 _009_
*54 _010_
*55 _011_
*56 _012_
*57 _013_
*58 _014_
*59 _015_
*60 _016_
*61 _017_
*62 _018_
*63 _019_
*64 _020_
*65 _021_
*66 _022_
*67 _023_
*68 _024_
*69 _025_
*70 _026_
*71 _027_
*72 _028_
*73 _029_
*74 _030_
*75 _031_
*76 _032_
*77 _033_
*78 _034_
*79 _035_
*80 _036_
*81 _037_
*82 _038_
*83 _039_
*84 _040_
*85 _041_
*86 _042_
*87 _043_
*88 _044_
*89 _045_
*90 _046_
*91 _047_
*92 _048_
*93 _049_
*94 _050_
*95 _051_
*96 _052_
*97 _053_
*98 _054_
*99 _055_
*100 _056_
*101 _057_
*102 _058_
*103 _059_
*104 _060_
*105 _061_
*106 _062_
*107 _063_
*108 _064_
*109 _065_
*110 _066_
*111 _067_
*112 _068_
*113 _069_
*114 _070_
*115 _071_
*116 _072_
*117 _073_
*118 _074_
*119 _075_
*120 _076_
*121 _077_
*122 _078_
*123 _079_
*124 _080_
*125 _081_
*126 _082_
*127 _083_
*128 _084_
*129 _085_
*130 _086_
*131 _087_
*132 _088_
*133 _089_
*134 _090_
*135 _091_
*136 _092_
*137 _093_
*138 _094_
*139 _095_
*140 _096_
*141 _097_
*142 _098_
*143 _099_
*144 _100_
*145 _101_
*146 _102_
*147 _103_
*148 _104_
*149 _105_
*150 _106_
*151 _107_
*152 _108_
*153 _109_
*154 _110_
*155 _111_
*156 _112_
*157 _113_
*158 _114_
*159 _115_
*160 _116_
*161 _117_
*162 _118_
*163 _119_
*164 _120_
*165 _121_
*166 _122_
*167 _123_
*168 _124_
*169 _125_
*170 _126_
*171 _127_
*172 _128_
*173 _129_
*174 _130_
*175 _131_
*176 _132_
*177 _133_
*178 _134_
*179 _135_
*180 _136_
*181 _137_
*182 _138_
*183 _139_
*184 _140_
*185 _141_
*186 _142_
*187 _143_
*188 _144_
*189 _145_
*190 _146_
*191 _147_
*192 _148_
*193 _149_
*194 _150_
*195 _151_
*196 _152_
*197 _153_
*198 _154_
*199 _155_
*200 _156_
*201 _157_
*202 _158_
*203 _159_
*204 _160_
*205 _161_
*206 _162_
*207 _163_
*208 _164_
*209 _165_
*210 _166_
*211 _167_
*212 _168_
*213 _169_
*214 _170_
*215 _171_
*216 _172_
*217 _173_
*218 _174_
*219 _175_
*220 _176_
*221 _177_
*222 _178_
*223 _179_
*224 baud_cnt\[0\]
*225 baud_cnt\[10\]
*226 baud_cnt\[11\]
*227 baud_cnt\[12\]
*228 baud_cnt\[13\]
*229 baud_cnt\[14\]
*230 baud_cnt\[15\]
*231 baud_cnt\[1\]
*232 baud_cnt\[2\]
*233 baud_cnt\[3\]
*234 baud_cnt\[4\]
*235 baud_cnt\[5\]
*236 baud_cnt\[6\]
*237 baud_cnt\[7\]
*238 baud_cnt\[8\]
*239 baud_cnt\[9\]
*240 bit_done
*241 clknet_0_clk_i
*242 clknet_2_0__leaf_clk_i
*243 clknet_2_1__leaf_clk_i
*244 clknet_2_2__leaf_clk_i
*245 clknet_2_3__leaf_clk_i
*246 net1
*247 net10
*248 net11
*249 net12
*250 net13
*251 net14
*252 net15
*253 net16
*254 net17
*255 net18
*256 net19
*257 net2
*258 net20
*259 net21
*260 net22
*261 net23
*262 net24
*263 net25
*264 net26
*265 net27
*266 net28
*267 net29
*268 net3
*269 net30
*270 net31
*271 net32
*272 net33
*273 net34
*274 net35
*275 net36
*276 net37
*277 net38
*278 net39
*279 net4
*280 net40
*281 net41
*282 net42
*283 net43
*284 net44
*285 net5
*286 net6
*287 net7
*288 net8
*289 net9
*290 parity_bit
*291 r_error_parity
*292 reg_bit_count
*293 reg_rx_sync\[0\]
*294 reg_rx_sync\[1\]
*295 reg_rx_sync\[2\]
*296 FILLER_0_104
*297 FILLER_0_138
*298 FILLER_0_155
*299 FILLER_0_163
*300 FILLER_0_167
*301 FILLER_0_169
*302 FILLER_0_172
*303 FILLER_0_2
*304 FILLER_0_206
*305 FILLER_0_240
*306 FILLER_0_248
*307 FILLER_0_250
*308 FILLER_0_36
*309 FILLER_0_70
*310 FILLER_10_103
*311 FILLER_10_107
*312 FILLER_10_115
*313 FILLER_10_119
*314 FILLER_10_154
*315 FILLER_10_16
*316 FILLER_10_170
*317 FILLER_10_174
*318 FILLER_10_183
*319 FILLER_10_191
*320 FILLER_10_195
*321 FILLER_10_2
*322 FILLER_10_209
*323 FILLER_10_217
*324 FILLER_10_32
*325 FILLER_10_34
*326 FILLER_10_37
*327 FILLER_10_61
*328 FILLER_10_77
*329 FILLER_10_82
*330 FILLER_10_99
*331 FILLER_11_10
*332 FILLER_11_107
*333 FILLER_11_111
*334 FILLER_11_117
*335 FILLER_11_133
*336 FILLER_11_137
*337 FILLER_11_139
*338 FILLER_11_142
*339 FILLER_11_182
*340 FILLER_11_192
*341 FILLER_11_2
*342 FILLER_11_200
*343 FILLER_11_219
*344 FILLER_11_23
*345 FILLER_11_55
*346 FILLER_11_63
*347 FILLER_11_67
*348 FILLER_11_69
*349 FILLER_11_72
*350 FILLER_11_88
*351 FILLER_11_99
*352 FILLER_12_107
*353 FILLER_12_111
*354 FILLER_12_129
*355 FILLER_12_161
*356 FILLER_12_169
*357 FILLER_12_173
*358 FILLER_12_177
*359 FILLER_12_19
*360 FILLER_12_2
*361 FILLER_12_209
*362 FILLER_12_225
*363 FILLER_12_247
*364 FILLER_12_27
*365 FILLER_12_29
*366 FILLER_12_34
*367 FILLER_12_37
*368 FILLER_12_53
*369 FILLER_12_57
*370 FILLER_12_59
*371 FILLER_12_6
*372 FILLER_12_73
*373 FILLER_12_81
*374 FILLER_12_97
*375 FILLER_13_129
*376 FILLER_13_137
*377 FILLER_13_139
*378 FILLER_13_142
*379 FILLER_13_174
*380 FILLER_13_182
*381 FILLER_13_196
*382 FILLER_13_200
*383 FILLER_13_207
*384 FILLER_13_209
*385 FILLER_13_212
*386 FILLER_13_220
*387 FILLER_13_232
*388 FILLER_13_234
*389 FILLER_13_30
*390 FILLER_13_62
*391 FILLER_13_72
*392 FILLER_13_74
*393 FILLER_14_103
*394 FILLER_14_107
*395 FILLER_14_123
*396 FILLER_14_131
*397 FILLER_14_135
*398 FILLER_14_137
*399 FILLER_14_151
*400 FILLER_14_177
*401 FILLER_14_18
*402 FILLER_14_193
*403 FILLER_14_201
*404 FILLER_14_211
*405 FILLER_14_213
*406 FILLER_14_222
*407 FILLER_14_238
*408 FILLER_14_242
*409 FILLER_14_244
*410 FILLER_14_247
*411 FILLER_14_32
*412 FILLER_14_34
*413 FILLER_14_37
*414 FILLER_14_41
*415 FILLER_14_43
*416 FILLER_14_57
*417 FILLER_14_65
*418 FILLER_14_77
*419 FILLER_14_87
*420 FILLER_15_108
*421 FILLER_15_112
*422 FILLER_15_114
*423 FILLER_15_130
*424 FILLER_15_138
*425 FILLER_15_176
*426 FILLER_15_188
*427 FILLER_15_196
*428 FILLER_15_204
*429 FILLER_15_212
*430 FILLER_15_219
*431 FILLER_15_30
*432 FILLER_15_34
*433 FILLER_15_48
*434 FILLER_15_64
*435 FILLER_15_68
*436 FILLER_15_72
*437 FILLER_15_83
*438 FILLER_16_104
*439 FILLER_16_107
*440 FILLER_16_109
*441 FILLER_16_126
*442 FILLER_16_142
*443 FILLER_16_150
*444 FILLER_16_162
*445 FILLER_16_170
*446 FILLER_16_174
*447 FILLER_16_177
*448 FILLER_16_181
*449 FILLER_16_199
*450 FILLER_16_207
*451 FILLER_16_247
*452 FILLER_16_28
*453 FILLER_16_32
*454 FILLER_16_34
*455 FILLER_16_37
*456 FILLER_16_41
*457 FILLER_16_58
*458 FILLER_16_60
*459 FILLER_16_88
*460 FILLER_16_92
*461 FILLER_17_104
*462 FILLER_17_112
*463 FILLER_17_116
*464 FILLER_17_130
*465 FILLER_17_138
*466 FILLER_17_142
*467 FILLER_17_150
*468 FILLER_17_204
*469 FILLER_17_208
*470 FILLER_17_212
*471 FILLER_17_214
*472 FILLER_17_223
*473 FILLER_17_239
*474 FILLER_17_247
*475 FILLER_17_28
*476 FILLER_17_32
*477 FILLER_17_45
*478 FILLER_17_61
*479 FILLER_17_69
*480 FILLER_17_72
*481 FILLER_18_107
*482 FILLER_18_109
*483 FILLER_18_177
*484 FILLER_18_186
*485 FILLER_18_195
*486 FILLER_18_247
*487 FILLER_18_31
*488 FILLER_18_49
*489 FILLER_18_81
*490 FILLER_18_97
*491 FILLER_19_106
*492 FILLER_19_110
*493 FILLER_19_112
*494 FILLER_19_130
*495 FILLER_19_138
*496 FILLER_19_192
*497 FILLER_19_208
*498 FILLER_19_212
*499 FILLER_19_232
*500 FILLER_19_234
*501 FILLER_19_30
*502 FILLER_19_38
*503 FILLER_19_42
*504 FILLER_19_52
*505 FILLER_19_56
*506 FILLER_19_69
*507 FILLER_19_72
*508 FILLER_19_80
*509 FILLER_19_84
*510 FILLER_19_98
*511 FILLER_1_136
*512 FILLER_1_142
*513 FILLER_1_2
*514 FILLER_1_206
*515 FILLER_1_212
*516 FILLER_1_244
*517 FILLER_1_248
*518 FILLER_1_250
*519 FILLER_1_66
*520 FILLER_1_72
*521 FILLER_20_107
*522 FILLER_20_109
*523 FILLER_20_122
*524 FILLER_20_154
*525 FILLER_20_170
*526 FILLER_20_174
*527 FILLER_20_177
*528 FILLER_20_209
*529 FILLER_20_211
*530 FILLER_20_219
*531 FILLER_20_235
*532 FILLER_20_243
*533 FILLER_20_247
*534 FILLER_20_30
*535 FILLER_20_34
*536 FILLER_20_37
*537 FILLER_20_45
*538 FILLER_20_49
*539 FILLER_20_60
*540 FILLER_20_76
*541 FILLER_20_88
*542 FILLER_21_130
*543 FILLER_21_138
*544 FILLER_21_142
*545 FILLER_21_150
*546 FILLER_21_166
*547 FILLER_21_174
*548 FILLER_21_178
*549 FILLER_21_198
*550 FILLER_21_206
*551 FILLER_21_212
*552 FILLER_21_228
*553 FILLER_21_234
*554 FILLER_21_250
*555 FILLER_21_30
*556 FILLER_21_32
*557 FILLER_21_47
*558 FILLER_21_63
*559 FILLER_21_68
*560 FILLER_21_72
*561 FILLER_22_104
*562 FILLER_22_107
*563 FILLER_22_123
*564 FILLER_22_125
*565 FILLER_22_160
*566 FILLER_22_170
*567 FILLER_22_18
*568 FILLER_22_197
*569 FILLER_22_20
*570 FILLER_22_247
*571 FILLER_22_33
*572 FILLER_22_49
*573 FILLER_22_69
*574 FILLER_22_88
*575 FILLER_23_100
*576 FILLER_23_136
*577 FILLER_23_142
*578 FILLER_23_196
*579 FILLER_23_204
*580 FILLER_23_208
*581 FILLER_23_212
*582 FILLER_23_221
*583 FILLER_23_229
*584 FILLER_23_34
*585 FILLER_23_38
*586 FILLER_23_63
*587 FILLER_23_67
*588 FILLER_23_69
*589 FILLER_23_72
*590 FILLER_23_92
*591 FILLER_24_107
*592 FILLER_24_139
*593 FILLER_24_155
*594 FILLER_24_157
*595 FILLER_24_166
*596 FILLER_24_174
*597 FILLER_24_177
*598 FILLER_24_18
*599 FILLER_24_181
*600 FILLER_24_183
*601 FILLER_24_192
*602 FILLER_24_224
*603 FILLER_24_228
*604 FILLER_24_247
*605 FILLER_24_34
*606 FILLER_24_37
*607 FILLER_24_69
*608 FILLER_25_136
*609 FILLER_25_142
*610 FILLER_25_184
*611 FILLER_25_188
*612 FILLER_25_197
*613 FILLER_25_2
*614 FILLER_25_212
*615 FILLER_25_220
*616 FILLER_25_224
*617 FILLER_25_38
*618 FILLER_25_72
*619 FILLER_26_100
*620 FILLER_26_104
*621 FILLER_26_107
*622 FILLER_26_115
*623 FILLER_26_153
*624 FILLER_26_169
*625 FILLER_26_17
*626 FILLER_26_173
*627 FILLER_26_177
*628 FILLER_26_196
*629 FILLER_26_2
*630 FILLER_26_204
*631 FILLER_26_208
*632 FILLER_26_215
*633 FILLER_26_223
*634 FILLER_26_225
*635 FILLER_26_244
*636 FILLER_26_247
*637 FILLER_26_33
*638 FILLER_26_37
*639 FILLER_26_53
*640 FILLER_26_6
*641 FILLER_26_61
*642 FILLER_26_63
*643 FILLER_26_72
*644 FILLER_26_80
*645 FILLER_26_84
*646 FILLER_26_92
*647 FILLER_27_100
*648 FILLER_27_116
*649 FILLER_27_129
*650 FILLER_27_137
*651 FILLER_27_139
*652 FILLER_27_142
*653 FILLER_27_16
*654 FILLER_27_174
*655 FILLER_27_190
*656 FILLER_27_198
*657 FILLER_27_2
*658 FILLER_27_212
*659 FILLER_27_214
*660 FILLER_27_24
*661 FILLER_27_28
*662 FILLER_27_30
*663 FILLER_27_81
*664 FILLER_27_90
*665 FILLER_28_101
*666 FILLER_28_107
*667 FILLER_28_115
*668 FILLER_28_119
*669 FILLER_28_121
*670 FILLER_28_128
*671 FILLER_28_177
*672 FILLER_28_18
*673 FILLER_28_185
*674 FILLER_28_189
*675 FILLER_28_2
*676 FILLER_28_226
*677 FILLER_28_228
*678 FILLER_28_247
*679 FILLER_28_34
*680 FILLER_28_37
*681 FILLER_28_41
*682 FILLER_28_50
*683 FILLER_28_66
*684 FILLER_28_68
*685 FILLER_28_75
*686 FILLER_28_91
*687 FILLER_29_129
*688 FILLER_29_137
*689 FILLER_29_139
*690 FILLER_29_142
*691 FILLER_29_179
*692 FILLER_29_187
*693 FILLER_29_212
*694 FILLER_29_228
*695 FILLER_29_232
*696 FILLER_29_234
*697 FILLER_29_44
*698 FILLER_29_60
*699 FILLER_29_68
*700 FILLER_29_72
*701 FILLER_29_88
*702 FILLER_29_92
*703 FILLER_29_94
*704 FILLER_2_101
*705 FILLER_2_107
*706 FILLER_2_171
*707 FILLER_2_177
*708 FILLER_2_2
*709 FILLER_2_209
*710 FILLER_2_225
*711 FILLER_2_247
*712 FILLER_2_34
*713 FILLER_2_37
*714 FILLER_30_103
*715 FILLER_30_107
*716 FILLER_30_171
*717 FILLER_30_177
*718 FILLER_30_2
*719 FILLER_30_201
*720 FILLER_30_22
*721 FILLER_30_233
*722 FILLER_30_241
*723 FILLER_30_247
*724 FILLER_30_30
*725 FILLER_30_34
*726 FILLER_30_37
*727 FILLER_30_51
*728 FILLER_30_6
*729 FILLER_30_67
*730 FILLER_30_77
*731 FILLER_30_87
*732 FILLER_31_123
*733 FILLER_31_139
*734 FILLER_31_142
*735 FILLER_31_158
*736 FILLER_31_162
*737 FILLER_31_164
*738 FILLER_31_18
*739 FILLER_31_180
*740 FILLER_31_188
*741 FILLER_31_190
*742 FILLER_31_2
*743 FILLER_31_206
*744 FILLER_31_212
*745 FILLER_31_244
*746 FILLER_31_248
*747 FILLER_31_250
*748 FILLER_31_26
*749 FILLER_31_30
*750 FILLER_31_32
*751 FILLER_31_67
*752 FILLER_31_69
*753 FILLER_31_72
*754 FILLER_31_74
*755 FILLER_31_91
*756 FILLER_32_100
*757 FILLER_32_104
*758 FILLER_32_107
*759 FILLER_32_123
*760 FILLER_32_131
*761 FILLER_32_171
*762 FILLER_32_177
*763 FILLER_32_185
*764 FILLER_32_187
*765 FILLER_32_2
*766 FILLER_32_239
*767 FILLER_32_243
*768 FILLER_32_247
*769 FILLER_32_34
*770 FILLER_32_37
*771 FILLER_32_44
*772 FILLER_32_60
*773 FILLER_32_64
*774 FILLER_33_136
*775 FILLER_33_142
*776 FILLER_33_158
*777 FILLER_33_198
*778 FILLER_33_2
*779 FILLER_33_206
*780 FILLER_33_212
*781 FILLER_33_214
*782 FILLER_33_66
*783 FILLER_33_72
*784 FILLER_34_101
*785 FILLER_34_107
*786 FILLER_34_139
*787 FILLER_34_147
*788 FILLER_34_151
*789 FILLER_34_153
*790 FILLER_34_169
*791 FILLER_34_173
*792 FILLER_34_193
*793 FILLER_34_2
*794 FILLER_34_213
*795 FILLER_34_247
*796 FILLER_34_34
*797 FILLER_34_37
*798 FILLER_35_104
*799 FILLER_35_138
*800 FILLER_35_188
*801 FILLER_35_2
*802 FILLER_35_206
*803 FILLER_35_240
*804 FILLER_35_248
*805 FILLER_35_250
*806 FILLER_35_36
*807 FILLER_35_70
*808 FILLER_3_104
*809 FILLER_3_120
*810 FILLER_3_128
*811 FILLER_3_142
*812 FILLER_3_158
*813 FILLER_3_166
*814 FILLER_3_18
*815 FILLER_3_2
*816 FILLER_3_201
*817 FILLER_3_209
*818 FILLER_3_212
*819 FILLER_3_228
*820 FILLER_3_232
*821 FILLER_3_234
*822 FILLER_3_26
*823 FILLER_3_28
*824 FILLER_3_63
*825 FILLER_3_67
*826 FILLER_3_69
*827 FILLER_3_72
*828 FILLER_4_102
*829 FILLER_4_104
*830 FILLER_4_107
*831 FILLER_4_115
*832 FILLER_4_117
*833 FILLER_4_154
*834 FILLER_4_162
*835 FILLER_4_174
*836 FILLER_4_177
*837 FILLER_4_193
*838 FILLER_4_2
*839 FILLER_4_201
*840 FILLER_4_211
*841 FILLER_4_227
*842 FILLER_4_247
*843 FILLER_4_34
*844 FILLER_4_37
*845 FILLER_4_53
*846 FILLER_4_55
*847 FILLER_4_90
*848 FILLER_4_98
*849 FILLER_5_121
*850 FILLER_5_137
*851 FILLER_5_139
*852 FILLER_5_142
*853 FILLER_5_144
*854 FILLER_5_153
*855 FILLER_5_158
*856 FILLER_5_166
*857 FILLER_5_170
*858 FILLER_5_186
*859 FILLER_5_246
*860 FILLER_5_250
*861 FILLER_5_36
*862 FILLER_5_68
*863 FILLER_5_72
*864 FILLER_5_80
*865 FILLER_5_84
*866 FILLER_5_86
*867 FILLER_6_102
*868 FILLER_6_104
*869 FILLER_6_107
*870 FILLER_6_139
*871 FILLER_6_14
*872 FILLER_6_143
*873 FILLER_6_151
*874 FILLER_6_167
*875 FILLER_6_177
*876 FILLER_6_2
*877 FILLER_6_209
*878 FILLER_6_22
*879 FILLER_6_225
*880 FILLER_6_24
*881 FILLER_6_247
*882 FILLER_6_45
*883 FILLER_6_53
*884 FILLER_6_6
*885 FILLER_6_62
*886 FILLER_6_78
*887 FILLER_6_86
*888 FILLER_6_98
*889 FILLER_7_109
*890 FILLER_7_132
*891 FILLER_7_158
*892 FILLER_7_18
*893 FILLER_7_182
*894 FILLER_7_190
*895 FILLER_7_194
*896 FILLER_7_2
*897 FILLER_7_212
*898 FILLER_7_216
*899 FILLER_7_218
*900 FILLER_7_22
*901 FILLER_7_24
*902 FILLER_7_33
*903 FILLER_7_65
*904 FILLER_7_69
*905 FILLER_7_72
*906 FILLER_7_80
*907 FILLER_7_84
*908 FILLER_7_93
*909 FILLER_8_103
*910 FILLER_8_190
*911 FILLER_8_197
*912 FILLER_8_2
*913 FILLER_8_210
*914 FILLER_8_247
*915 FILLER_8_34
*916 FILLER_8_37
*917 FILLER_8_87
*918 FILLER_9_104
*919 FILLER_9_119
*920 FILLER_9_135
*921 FILLER_9_139
*922 FILLER_9_142
*923 FILLER_9_2
*924 FILLER_9_206
*925 FILLER_9_212
*926 FILLER_9_220
*927 FILLER_9_222
*928 FILLER_9_38
*929 FILLER_9_54
*930 FILLER_9_61
*931 FILLER_9_69
*932 FILLER_9_72
*933 PHY_EDGE_ROW_0_Left_36
*934 PHY_EDGE_ROW_0_Right_0
*935 PHY_EDGE_ROW_10_Left_46
*936 PHY_EDGE_ROW_10_Right_10
*937 PHY_EDGE_ROW_11_Left_47
*938 PHY_EDGE_ROW_11_Right_11
*939 PHY_EDGE_ROW_12_Left_48
*940 PHY_EDGE_ROW_12_Right_12
*941 PHY_EDGE_ROW_13_Left_49
*942 PHY_EDGE_ROW_13_Right_13
*943 PHY_EDGE_ROW_14_Left_50
*944 PHY_EDGE_ROW_14_Right_14
*945 PHY_EDGE_ROW_15_Left_51
*946 PHY_EDGE_ROW_15_Right_15
*947 PHY_EDGE_ROW_16_Left_52
*948 PHY_EDGE_ROW_16_Right_16
*949 PHY_EDGE_ROW_17_Left_53
*950 PHY_EDGE_ROW_17_Right_17
*951 PHY_EDGE_ROW_18_Left_54
*952 PHY_EDGE_ROW_18_Right_18
*953 PHY_EDGE_ROW_19_Left_55
*954 PHY_EDGE_ROW_19_Right_19
*955 PHY_EDGE_ROW_1_Left_37
*956 PHY_EDGE_ROW_1_Right_1
*957 PHY_EDGE_ROW_20_Left_56
*958 PHY_EDGE_ROW_20_Right_20
*959 PHY_EDGE_ROW_21_Left_57
*960 PHY_EDGE_ROW_21_Right_21
*961 PHY_EDGE_ROW_22_Left_58
*962 PHY_EDGE_ROW_22_Right_22
*963 PHY_EDGE_ROW_23_Left_59
*964 PHY_EDGE_ROW_23_Right_23
*965 PHY_EDGE_ROW_24_Left_60
*966 PHY_EDGE_ROW_24_Right_24
*967 PHY_EDGE_ROW_25_Left_61
*968 PHY_EDGE_ROW_25_Right_25
*969 PHY_EDGE_ROW_26_Left_62
*970 PHY_EDGE_ROW_26_Right_26
*971 PHY_EDGE_ROW_27_Left_63
*972 PHY_EDGE_ROW_27_Right_27
*973 PHY_EDGE_ROW_28_Left_64
*974 PHY_EDGE_ROW_28_Right_28
*975 PHY_EDGE_ROW_29_Left_65
*976 PHY_EDGE_ROW_29_Right_29
*977 PHY_EDGE_ROW_2_Left_38
*978 PHY_EDGE_ROW_2_Right_2
*979 PHY_EDGE_ROW_30_Left_66
*980 PHY_EDGE_ROW_30_Right_30
*981 PHY_EDGE_ROW_31_Left_67
*982 PHY_EDGE_ROW_31_Right_31
*983 PHY_EDGE_ROW_32_Left_68
*984 PHY_EDGE_ROW_32_Right_32
*985 PHY_EDGE_ROW_33_Left_69
*986 PHY_EDGE_ROW_33_Right_33
*987 PHY_EDGE_ROW_34_Left_70
*988 PHY_EDGE_ROW_34_Right_34
*989 PHY_EDGE_ROW_35_Left_71
*990 PHY_EDGE_ROW_35_Right_35
*991 PHY_EDGE_ROW_3_Left_39
*992 PHY_EDGE_ROW_3_Right_3
*993 PHY_EDGE_ROW_4_Left_40
*994 PHY_EDGE_ROW_4_Right_4
*995 PHY_EDGE_ROW_5_Left_41
*996 PHY_EDGE_ROW_5_Right_5
*997 PHY_EDGE_ROW_6_Left_42
*998 PHY_EDGE_ROW_6_Right_6
*999 PHY_EDGE_ROW_7_Left_43
*1000 PHY_EDGE_ROW_7_Right_7
*1001 PHY_EDGE_ROW_8_Left_44
*1002 PHY_EDGE_ROW_8_Right_8
*1003 PHY_EDGE_ROW_9_Left_45
*1004 PHY_EDGE_ROW_9_Right_9
*1005 TAP_TAPCELL_ROW_0_72
*1006 TAP_TAPCELL_ROW_0_73
*1007 TAP_TAPCELL_ROW_0_74
*1008 TAP_TAPCELL_ROW_0_75
*1009 TAP_TAPCELL_ROW_0_76
*1010 TAP_TAPCELL_ROW_0_77
*1011 TAP_TAPCELL_ROW_0_78
*1012 TAP_TAPCELL_ROW_10_110
*1013 TAP_TAPCELL_ROW_10_111
*1014 TAP_TAPCELL_ROW_10_112
*1015 TAP_TAPCELL_ROW_10_113
*1016 TAP_TAPCELL_ROW_11_114
*1017 TAP_TAPCELL_ROW_11_115
*1018 TAP_TAPCELL_ROW_11_116
*1019 TAP_TAPCELL_ROW_12_117
*1020 TAP_TAPCELL_ROW_12_118
*1021 TAP_TAPCELL_ROW_12_119
*1022 TAP_TAPCELL_ROW_12_120
*1023 TAP_TAPCELL_ROW_13_121
*1024 TAP_TAPCELL_ROW_13_122
*1025 TAP_TAPCELL_ROW_13_123
*1026 TAP_TAPCELL_ROW_14_124
*1027 TAP_TAPCELL_ROW_14_125
*1028 TAP_TAPCELL_ROW_14_126
*1029 TAP_TAPCELL_ROW_14_127
*1030 TAP_TAPCELL_ROW_15_128
*1031 TAP_TAPCELL_ROW_15_129
*1032 TAP_TAPCELL_ROW_15_130
*1033 TAP_TAPCELL_ROW_16_131
*1034 TAP_TAPCELL_ROW_16_132
*1035 TAP_TAPCELL_ROW_16_133
*1036 TAP_TAPCELL_ROW_16_134
*1037 TAP_TAPCELL_ROW_17_135
*1038 TAP_TAPCELL_ROW_17_136
*1039 TAP_TAPCELL_ROW_17_137
*1040 TAP_TAPCELL_ROW_18_138
*1041 TAP_TAPCELL_ROW_18_139
*1042 TAP_TAPCELL_ROW_18_140
*1043 TAP_TAPCELL_ROW_18_141
*1044 TAP_TAPCELL_ROW_19_142
*1045 TAP_TAPCELL_ROW_19_143
*1046 TAP_TAPCELL_ROW_19_144
*1047 TAP_TAPCELL_ROW_1_79
*1048 TAP_TAPCELL_ROW_1_80
*1049 TAP_TAPCELL_ROW_1_81
*1050 TAP_TAPCELL_ROW_20_145
*1051 TAP_TAPCELL_ROW_20_146
*1052 TAP_TAPCELL_ROW_20_147
*1053 TAP_TAPCELL_ROW_20_148
*1054 TAP_TAPCELL_ROW_21_149
*1055 TAP_TAPCELL_ROW_21_150
*1056 TAP_TAPCELL_ROW_21_151
*1057 TAP_TAPCELL_ROW_22_152
*1058 TAP_TAPCELL_ROW_22_153
*1059 TAP_TAPCELL_ROW_22_154
*1060 TAP_TAPCELL_ROW_22_155
*1061 TAP_TAPCELL_ROW_23_156
*1062 TAP_TAPCELL_ROW_23_157
*1063 TAP_TAPCELL_ROW_23_158
*1064 TAP_TAPCELL_ROW_24_159
*1065 TAP_TAPCELL_ROW_24_160
*1066 TAP_TAPCELL_ROW_24_161
*1067 TAP_TAPCELL_ROW_24_162
*1068 TAP_TAPCELL_ROW_25_163
*1069 TAP_TAPCELL_ROW_25_164
*1070 TAP_TAPCELL_ROW_25_165
*1071 TAP_TAPCELL_ROW_26_166
*1072 TAP_TAPCELL_ROW_26_167
*1073 TAP_TAPCELL_ROW_26_168
*1074 TAP_TAPCELL_ROW_26_169
*1075 TAP_TAPCELL_ROW_27_170
*1076 TAP_TAPCELL_ROW_27_171
*1077 TAP_TAPCELL_ROW_27_172
*1078 TAP_TAPCELL_ROW_28_173
*1079 TAP_TAPCELL_ROW_28_174
*1080 TAP_TAPCELL_ROW_28_175
*1081 TAP_TAPCELL_ROW_28_176
*1082 TAP_TAPCELL_ROW_29_177
*1083 TAP_TAPCELL_ROW_29_178
*1084 TAP_TAPCELL_ROW_29_179
*1085 TAP_TAPCELL_ROW_2_82
*1086 TAP_TAPCELL_ROW_2_83
*1087 TAP_TAPCELL_ROW_2_84
*1088 TAP_TAPCELL_ROW_2_85
*1089 TAP_TAPCELL_ROW_30_180
*1090 TAP_TAPCELL_ROW_30_181
*1091 TAP_TAPCELL_ROW_30_182
*1092 TAP_TAPCELL_ROW_30_183
*1093 TAP_TAPCELL_ROW_31_184
*1094 TAP_TAPCELL_ROW_31_185
*1095 TAP_TAPCELL_ROW_31_186
*1096 TAP_TAPCELL_ROW_32_187
*1097 TAP_TAPCELL_ROW_32_188
*1098 TAP_TAPCELL_ROW_32_189
*1099 TAP_TAPCELL_ROW_32_190
*1100 TAP_TAPCELL_ROW_33_191
*1101 TAP_TAPCELL_ROW_33_192
*1102 TAP_TAPCELL_ROW_33_193
*1103 TAP_TAPCELL_ROW_34_194
*1104 TAP_TAPCELL_ROW_34_195
*1105 TAP_TAPCELL_ROW_34_196
*1106 TAP_TAPCELL_ROW_34_197
*1107 TAP_TAPCELL_ROW_35_198
*1108 TAP_TAPCELL_ROW_35_199
*1109 TAP_TAPCELL_ROW_35_200
*1110 TAP_TAPCELL_ROW_35_201
*1111 TAP_TAPCELL_ROW_35_202
*1112 TAP_TAPCELL_ROW_35_203
*1113 TAP_TAPCELL_ROW_35_204
*1114 TAP_TAPCELL_ROW_3_86
*1115 TAP_TAPCELL_ROW_3_87
*1116 TAP_TAPCELL_ROW_3_88
*1117 TAP_TAPCELL_ROW_4_89
*1118 TAP_TAPCELL_ROW_4_90
*1119 TAP_TAPCELL_ROW_4_91
*1120 TAP_TAPCELL_ROW_4_92
*1121 TAP_TAPCELL_ROW_5_93
*1122 TAP_TAPCELL_ROW_5_94
*1123 TAP_TAPCELL_ROW_5_95
*1124 TAP_TAPCELL_ROW_6_96
*1125 TAP_TAPCELL_ROW_6_97
*1126 TAP_TAPCELL_ROW_6_98
*1127 TAP_TAPCELL_ROW_6_99
*1128 TAP_TAPCELL_ROW_7_100
*1129 TAP_TAPCELL_ROW_7_101
*1130 TAP_TAPCELL_ROW_7_102
*1131 TAP_TAPCELL_ROW_8_103
*1132 TAP_TAPCELL_ROW_8_104
*1133 TAP_TAPCELL_ROW_8_105
*1134 TAP_TAPCELL_ROW_8_106
*1135 TAP_TAPCELL_ROW_9_107
*1136 TAP_TAPCELL_ROW_9_108
*1137 TAP_TAPCELL_ROW_9_109
*1138 _180_
*1139 _181_
*1140 _182_
*1141 _183_
*1142 _184_
*1143 _185_
*1144 _186_
*1145 _187_
*1146 _188_
*1147 _189_
*1148 _190_
*1149 _191_
*1150 _192_
*1151 _193_
*1152 _194_
*1153 _195_
*1154 _196_
*1155 _197_
*1156 _198_
*1157 _199_
*1158 _200_
*1159 _201_
*1160 _202_
*1161 _203_
*1162 _204_
*1163 _205_
*1164 _206_
*1165 _207_
*1166 _208_
*1167 _209_
*1168 _210_
*1169 _211_
*1170 _212_
*1171 _213_
*1172 _214_
*1173 _215_
*1174 _216_
*1175 _217_
*1176 _218_
*1177 _219_
*1178 _220_
*1179 _221_
*1180 _222_
*1181 _223_
*1182 _224_
*1183 _225_
*1184 _226_
*1185 _227_
*1186 _228_
*1187 _229_
*1188 _230_
*1189 _231_
*1190 _232_
*1191 _233_
*1192 _234_
*1193 _235_
*1194 _236_
*1195 _237_
*1196 _238_
*1197 _239_
*1198 _240_
*1199 _241_
*1200 _242_
*1201 _243_
*1202 _244_
*1203 _245_
*1204 _246_
*1205 _247_
*1206 _248_
*1207 _249_
*1208 _250_
*1209 _251_
*1210 _252_
*1211 _253_
*1212 _254_
*1213 _255_
*1214 _256_
*1215 _257_
*1216 _258_
*1217 _259_
*1218 _260_
*1219 _261_
*1220 _262_
*1221 _263_
*1222 _264_
*1223 _265_
*1224 _266_
*1225 _267_
*1226 _268_
*1227 _269_
*1228 _270_
*1229 _271_
*1230 _272_
*1231 _273_
*1232 _274_
*1233 _275_
*1234 _276_
*1235 _277_
*1236 _278_
*1237 _279_
*1238 _280_
*1239 _281_
*1240 _282_
*1241 _283_
*1242 _284_
*1243 _285_
*1244 _286_
*1245 _287_
*1246 _288_
*1247 _289_
*1248 _290_
*1249 _291_
*1250 _292_
*1251 _293_
*1252 _294_
*1253 _295_
*1254 _296_
*1255 _297_
*1256 _298_
*1257 _299_
*1258 _300_
*1259 _301_
*1260 _302_
*1261 _303_
*1262 _304_
*1263 _305_
*1264 _306_
*1265 _307_
*1266 _308_
*1267 _309_
*1268 _310_
*1269 _311_
*1270 _312_
*1271 _313_
*1272 _314_
*1273 _315_
*1274 _316_
*1275 _317_
*1276 _318_
*1277 _319_
*1278 _320_
*1279 _321_
*1280 _322_
*1281 _323_
*1282 _324_
*1283 _325_
*1284 _326_
*1285 _327_
*1286 _328_
*1287 _329_
*1288 _330_
*1289 _331_
*1290 _332_
*1291 _333_
*1292 _334_
*1293 _335_
*1294 _336_
*1295 _337_
*1296 _338_
*1297 _339_
*1298 _340_
*1299 _341_
*1300 _342_
*1301 _343_
*1302 _344_
*1303 _345_
*1304 _346_
*1305 _347_
*1306 _348_
*1307 _349_
*1308 _350_
*1309 _351_
*1310 _352_
*1311 _353_
*1312 _354_
*1313 _355_
*1314 _356_
*1315 _357_
*1316 _358_
*1317 _359_
*1318 _360_
*1319 _361_
*1320 _362_
*1321 _363_
*1322 _364_
*1323 _365_
*1324 _366_
*1325 _367_
*1326 _368_
*1327 _369_
*1328 _370_
*1329 _371_
*1330 _372_
*1331 _373_
*1332 _374_
*1333 _375_
*1334 _376_
*1335 _377_
*1336 _378_
*1337 _379_
*1338 _380_
*1339 _381_
*1340 _382_
*1341 _383_
*1342 _384_
*1343 _385_
*1344 _386_
*1345 _387_
*1346 _388_
*1347 _389_
*1348 _390_
*1349 _391_
*1350 _392_
*1351 _393_
*1352 _394_
*1353 _395_
*1354 _396_
*1355 _397_
*1356 _398_
*1357 clkbuf_0_clk_i
*1358 clkbuf_2_0__f_clk_i
*1359 clkbuf_2_1__f_clk_i
*1360 clkbuf_2_2__f_clk_i
*1361 clkbuf_2_3__f_clk_i
*1362 clkload0
*1363 clkload1
*1364 clkload2
*1365 fanout37
*1366 fanout38
*1367 fanout39
*1368 fanout40
*1369 fanout41
*1370 fanout42
*1371 fanout43
*1372 fanout44
*1373 input1
*1374 input10
*1375 input11
*1376 input12
*1377 input13
*1378 input14
*1379 input15
*1380 input16
*1381 input17
*1382 input18
*1383 input19
*1384 input2
*1385 input20
*1386 input21
*1387 input22
*1388 input23
*1389 input3
*1390 input4
*1391 input5
*1392 input6
*1393 input7
*1394 input8
*1395 input9
*1396 output24
*1397 output25
*1398 output26
*1399 output27
*1400 output28
*1401 output29
*1402 output30
*1403 output31
*1404 output32
*1405 output33
*1406 output34
*1407 output35
*1408 output36

*PORTS
busy_o O
cfg_bits_i[0] I
cfg_bits_i[1] I
cfg_div_i[0] I
cfg_div_i[10] I
cfg_div_i[11] I
cfg_div_i[12] I
cfg_div_i[13] I
cfg_div_i[14] I
cfg_div_i[15] I
cfg_div_i[1] I
cfg_div_i[2] I
cfg_div_i[3] I
cfg_div_i[4] I
cfg_div_i[5] I
cfg_div_i[6] I
cfg_div_i[7] I
cfg_div_i[8] I
cfg_div_i[9] I
cfg_en_i I
cfg_parity_en_i I
cfg_stop_bits_i I
char_event_o O
clk_i I
err_overflow_o O
err_parity_o O
rstn_i I
rx_data_o[0] O
rx_data_o[1] O
rx_data_o[2] O
rx_data_o[3] O
rx_data_o[4] O
rx_data_o[5] O
rx_data_o[6] O
rx_data_o[7] O
rx_i I
rx_ready_i I
rx_valid_o O

*D_NET *3 0.00138565
*CONN
*P busy_o O
*I *1396:Z O *D gf180mcu_fd_sc_mcu7t5v0__dlyb_1
*CAP
1 busy_o 0.000411899
2 *1396:Z 0.000411899
3 busy_o *1385:I 0.000561851
*RES
1 *1396:Z busy_o 13.3996 
*END

*D_NET *4 0.00132867
*CONN
*P cfg_bits_i[0] I
*I *1373:I I *D gf180mcu_fd_sc_mcu7t5v0__dlyb_1
*CAP
1 cfg_bits_i[0] 0.000211142
2 *1373:I 0.000211142
3 *1373:I rx_data_o[7] 0.000325279
4 *1373:I *1384:I 0.000581101
*RES
1 cfg_bits_i[0] *1373:I 13.1916 
*END

*D_NET *5 0.00159723
*CONN
*P cfg_bits_i[1] I
*I *1384:I I *D gf180mcu_fd_sc_mcu7t5v0__dlyb_1
*CAP
1 cfg_bits_i[1] 0.000476553
2 *1384:I 0.000476553
3 *1384:I rx_data_o[7] 3.09205e-05
4 *1384:I *1303:A2 3.2098e-05
5 *1373:I *1384:I 0.000581101
*RES
1 cfg_bits_i[1] *1384:I 14.4396 
*END

*D_NET *6 0.00130065
*CONN
*P cfg_div_i[0] I
*I *1389:I I *D gf180mcu_fd_sc_mcu7t5v0__dlyb_1
*CAP
1 cfg_div_i[0] 0.000366643
2 *1389:I 0.000366643
3 *1389:I *1374:I 0.000567366
4 *1389:I *247:8 0
*RES
1 cfg_div_i[0] *1389:I 13.108 
*END

*D_NET *7 0.00202018
*CONN
*P cfg_div_i[10] I
*I *1390:I I *D gf180mcu_fd_sc_mcu7t5v0__dlyb_1
*CAP
1 cfg_div_i[10] 0.00022106
2 *1390:I 0.00022106
3 *1390:I *1382:I 0.000994405
4 *1390:I *1392:I 0.000583651
*RES
1 cfg_div_i[10] *1390:I 13.94 
*END

*D_NET *8 0.000955728
*CONN
*P cfg_div_i[11] I
*I *1391:I I *D gf180mcu_fd_sc_mcu7t5v0__dlyb_1
*CAP
1 cfg_div_i[11] 0.00029467
2 *1391:I 0.00029467
3 *1391:I *1375:I 0.000100996
4 *1391:I *1395:I 0.000265393
5 *1391:I *248:14 0
*RES
1 cfg_div_i[11] *1391:I 12.692 
*END

*D_NET *9 0.00165711
*CONN
*P cfg_div_i[12] I
*I *1392:I I *D gf180mcu_fd_sc_mcu7t5v0__dlyb_1
*CAP
1 cfg_div_i[12] 0.000232596
2 *1392:I 0.000232596
3 *1392:I *1394:I 0.000608261
4 *1390:I *1392:I 0.000583651
*RES
1 cfg_div_i[12] *1392:I 13.524 
*END

*D_NET *10 0.0021626
*CONN
*P cfg_div_i[13] I
*I *1393:I I *D gf180mcu_fd_sc_mcu7t5v0__dlyb_1
*CAP
1 cfg_div_i[13] 0.000652014
2 *1393:I 0.000652014
3 *1393:I *1382:I 0.000592062
4 *1393:I *225:24 4.75386e-05
5 *1393:I *229:27 0.000110346
6 *1393:I *255:14 5.61793e-05
7 *1393:I *279:12 4.9065e-05
8 *1393:I *288:10 3.38238e-06
*RES
1 cfg_div_i[13] *1393:I 16.436 
*END

*D_NET *11 0.00142417
*CONN
*P cfg_div_i[14] I
*I *1394:I I *D gf180mcu_fd_sc_mcu7t5v0__dlyb_1
*CAP
1 cfg_div_i[14] 0.000407956
2 *1394:I 0.000407956
3 *1394:I *1375:I 0
4 *1394:I *288:10 0
5 *1392:I *1394:I 0.000608261
*RES
1 cfg_div_i[14] *1394:I 13.524 
*END

*D_NET *12 0.00151083
*CONN
*P cfg_div_i[15] I
*I *1395:I I *D gf180mcu_fd_sc_mcu7t5v0__dlyb_1
*CAP
1 cfg_div_i[15] 0.000233637
2 *1395:I 0.000233637
3 *1395:I *1379:I 0.000778163
4 *1395:I *248:14 0
5 *1391:I *1395:I 0.000265393
*RES
1 cfg_div_i[15] *1395:I 13.316 
*END

*D_NET *13 0.000993111
*CONN
*P cfg_div_i[1] I
*I *1374:I I *D gf180mcu_fd_sc_mcu7t5v0__dlyb_1
*CAP
1 cfg_div_i[1] 0.000212872
2 *1374:I 0.000212872
3 *1374:I *1377:I 0
4 *1389:I *1374:I 0.000567366
*RES
1 cfg_div_i[1] *1374:I 12.38 
*END

*D_NET *14 0.000759292
*CONN
*P cfg_div_i[2] I
*I *1375:I I *D gf180mcu_fd_sc_mcu7t5v0__dlyb_1
*CAP
1 cfg_div_i[2] 0.000329148
2 *1375:I 0.000329148
3 *1391:I *1375:I 0.000100996
4 *1394:I *1375:I 0
*RES
1 cfg_div_i[2] *1375:I 12.38 
*END

*D_NET *15 0.00215091
*CONN
*P cfg_div_i[3] I
*I *1376:I I *D gf180mcu_fd_sc_mcu7t5v0__dlyb_1
*CAP
1 cfg_div_i[3] 0.00107545
2 *1376:I 0.00107545
*RES
1 cfg_div_i[3] *1376:I 22.08 
*END

*D_NET *16 0.00108559
*CONN
*P cfg_div_i[4] I
*I *1377:I I *D gf180mcu_fd_sc_mcu7t5v0__dlyb_1
*CAP
1 cfg_div_i[4] 0.000250968
2 *1377:I 0.000250968
3 *1377:I *1378:I 0.000583651
4 *1377:I *248:14 0
5 *1374:I *1377:I 0
*RES
1 cfg_div_i[4] *1377:I 12.692 
*END

*D_NET *17 0.00120063
*CONN
*P cfg_div_i[5] I
*I *1378:I I *D gf180mcu_fd_sc_mcu7t5v0__dlyb_1
*CAP
1 cfg_div_i[5] 0.00030849
2 *1378:I 0.00030849
3 *1378:I *248:14 0
4 *1377:I *1378:I 0.000583651
*RES
1 cfg_div_i[5] *1378:I 12.9 
*END

*D_NET *18 0.0016901
*CONN
*P cfg_div_i[6] I
*I *1379:I I *D gf180mcu_fd_sc_mcu7t5v0__dlyb_1
*CAP
1 cfg_div_i[6] 0.000455968
2 *1379:I 0.000455968
3 *1379:I *248:14 0
4 *1395:I *1379:I 0.000778163
*RES
1 cfg_div_i[6] *1379:I 14.148 
*END

*D_NET *19 0.00120907
*CONN
*P cfg_div_i[7] I
*I *1380:I I *D gf180mcu_fd_sc_mcu7t5v0__dlyb_1
*CAP
1 cfg_div_i[7] 0.000604533
2 *1380:I 0.000604533
*RES
1 cfg_div_i[7] *1380:I 13.6076 
*END

*D_NET *20 0.00197006
*CONN
*P cfg_div_i[8] I
*I *1381:I I *D gf180mcu_fd_sc_mcu7t5v0__dlyb_1
*CAP
1 cfg_div_i[8] 0.000985029
2 *1381:I 0.000985029
*RES
1 cfg_div_i[8] *1381:I 13.3307 
*END

*D_NET *21 0.0023031
*CONN
*P cfg_div_i[9] I
*I *1382:I I *D gf180mcu_fd_sc_mcu7t5v0__dlyb_1
*CAP
1 cfg_div_i[9] 0.000358316
2 *1382:I 0.000358316
3 *1390:I *1382:I 0.000994405
4 *1393:I *1382:I 0.000592062
*RES
1 cfg_div_i[9] *1382:I 14.772 
*END

*D_NET *22 0.00126628
*CONN
*P cfg_en_i I
*I *1383:I I *D gf180mcu_fd_sc_mcu7t5v0__dlyb_1
*CAP
1 cfg_en_i 0.00063314
2 *1383:I 0.00063314
3 *1383:I *1372:I 0
*RES
1 cfg_en_i *1383:I 14.0236 
*END

*D_NET *23 0.00234015
*CONN
*P cfg_parity_en_i I
*I *1385:I I *D gf180mcu_fd_sc_mcu7t5v0__dlyb_1
*CAP
1 cfg_parity_en_i 0.000606332
2 *1385:I 0.000606332
3 *1385:I *1371:I 0
4 *1385:I *1396:I 0.000450565
5 *1385:I *283:41 2.04597e-06
6 *1385:I *284:10 0.000113027
7 busy_o *1385:I 0.000561851
*RES
1 cfg_parity_en_i *1385:I 16.1036 
*END

*D_NET *25 0.00241971
*CONN
*P char_event_o O
*I *1397:Z O *D gf180mcu_fd_sc_mcu7t5v0__dlyb_1
*CAP
1 char_event_o 0.000875892
2 *1397:Z 0.000875892
3 char_event_o err_overflow_o 0.000554907
4 char_event_o err_parity_o 0
5 char_event_o rx_valid_o 0.000113016
6 char_event_o *1388:I 0
*RES
1 *1397:Z char_event_o 16.4156 
*END

*D_NET *26 0.0131131
*CONN
*P clk_i I
*I *1357:I I *D gf180mcu_fd_sc_mcu7t5v0__clkbuf_16
*CAP
1 clk_i 0.00292939
2 *1357:I 0.000224528
3 *26:10 0.00301744
4 *26:8 0.0057223
5 *1357:I *1366:I 3.50991e-05
6 *1357:I *276:84 0
7 *26:10 *1186:A1 0.000134833
8 *26:10 *1346:D 0.0001252
9 *26:10 *1346:CLK 0.000120191
10 *26:10 *1366:I 0.000804148
11 *26:10 *226:12 0
12 *26:10 *276:84 0
13 *26:10 *276:93 0
*RES
1 clk_i *26:8 29.72 
2 *26:8 *26:10 21.528 
3 *26:10 *1357:I 5.956 
*END

*D_NET *27 0.00220983
*CONN
*P err_overflow_o O
*I *1398:Z O *D gf180mcu_fd_sc_mcu7t5v0__dlyb_1
*CAP
1 err_overflow_o 0.000371255
2 *1398:Z 0.000371255
3 err_overflow_o *1154:I 1.76416e-05
4 err_overflow_o *1216:A1 0.000116476
5 err_overflow_o *1388:I 0.000639264
6 err_overflow_o *291:8 0.000139032
7 char_event_o err_overflow_o 0.000554907
*RES
1 *1398:Z err_overflow_o 15.0636 
*END

*D_NET *28 0.00170544
*CONN
*P err_parity_o O
*I *1399:Z O *D gf180mcu_fd_sc_mcu7t5v0__dlyb_1
*CAP
1 err_parity_o 0.000491281
2 *1399:Z 0.000491281
3 err_parity_o rx_valid_o 0.000550087
4 err_parity_o *1388:I 0.00010585
5 err_parity_o *283:48 6.69436e-05
6 char_event_o err_parity_o 0
*RES
1 *1399:Z err_parity_o 14.8556 
*END

*D_NET *29 0.00199904
*CONN
*P rstn_i I
*I *1386:I I *D gf180mcu_fd_sc_mcu7t5v0__dlyb_1
*CAP
1 rstn_i 0.000999522
2 *1386:I 0.000999522
3 *1386:I *1372:I 0
4 *1386:I *256:10 0
*RES
1 rstn_i *1386:I 16.3116 
*END

*D_NET *30 0.00135713
*CONN
*P rx_data_o[0] O
*I *1400:Z O *D gf180mcu_fd_sc_mcu7t5v0__dlyb_1
*CAP
1 rx_data_o[0] 0.000657759
2 *1400:Z 0.000657759
3 rx_data_o[0] *1400:I 0
4 rx_data_o[0] *266:10 4.16074e-05
*RES
1 *1400:Z rx_data_o[0] 14.4396 
*END

*D_NET *31 0.00178687
*CONN
*P rx_data_o[1] O
*I *1401:Z O *D gf180mcu_fd_sc_mcu7t5v0__dlyb_1
*CAP
1 rx_data_o[1] 0.000886592
2 *1401:Z 0.000886592
3 rx_data_o[1] *1401:I 1.36858e-05
*RES
1 *1401:Z rx_data_o[1] 11.8116 
*END

*D_NET *32 0.00215796
*CONN
*P rx_data_o[2] O
*I *1402:Z O *D gf180mcu_fd_sc_mcu7t5v0__dlyb_1
*CAP
1 rx_data_o[2] 0.00107898
2 *1402:Z 0.00107898
*RES
1 *1402:Z rx_data_o[2] 13.0596 
*END

*D_NET *33 0.00267655
*CONN
*P rx_data_o[3] O
*I *1403:Z O *D gf180mcu_fd_sc_mcu7t5v0__dlyb_1
*CAP
1 rx_data_o[3] 0.00127361
2 *1403:Z 0.00127361
3 rx_data_o[3] rx_data_o[4] 5.65986e-05
4 rx_data_o[3] *1404:I 7.27258e-05
*RES
1 *1403:Z rx_data_o[3] 15.6187 
*END

*D_NET *34 0.00213473
*CONN
*P rx_data_o[4] O
*I *1404:Z O *D gf180mcu_fd_sc_mcu7t5v0__dlyb_1
*CAP
1 rx_data_o[4] 0.000985681
2 *1404:Z 0.000985681
3 rx_data_o[4] *1404:I 0.000106768
4 rx_data_o[3] rx_data_o[4] 5.65986e-05
*RES
1 *1404:Z rx_data_o[4] 22.0596 
*END

*D_NET *35 0.00143382
*CONN
*P rx_data_o[5] O
*I *1405:Z O *D gf180mcu_fd_sc_mcu7t5v0__dlyb_1
*CAP
1 rx_data_o[5] 0.000650766
2 *1405:Z 0.000650766
3 rx_data_o[5] rx_data_o[6] 0.000102926
4 rx_data_o[5] *1406:I 2.93608e-05
5 rx_data_o[5] *273:10 0
*RES
1 *1405:Z rx_data_o[5] 14.8556 
*END

*D_NET *36 0.0011009
*CONN
*P rx_data_o[6] O
*I *1406:Z O *D gf180mcu_fd_sc_mcu7t5v0__dlyb_1
*CAP
1 rx_data_o[6] 0.000498986
2 *1406:Z 0.000498986
3 rx_data_o[5] rx_data_o[6] 0.000102926
*RES
1 *1406:Z rx_data_o[6] 13.3996 
*END

*D_NET *37 0.00190988
*CONN
*P rx_data_o[7] O
*I *1407:Z O *D gf180mcu_fd_sc_mcu7t5v0__dlyb_1
*CAP
1 rx_data_o[7] 0.000526456
2 *1407:Z 0.000526456
3 rx_data_o[7] *1303:A2 0.000500772
4 rx_data_o[7] *246:8 0
5 rx_data_o[7] *274:10 0
6 *1373:I rx_data_o[7] 0.000325279
7 *1384:I rx_data_o[7] 3.09205e-05
*RES
1 *1407:Z rx_data_o[7] 15.2716 
*END

*D_NET *38 0.00221844
*CONN
*P rx_i I
*I *1387:I I *D gf180mcu_fd_sc_mcu7t5v0__dlyb_1
*CAP
1 rx_i 0.00110922
2 *1387:I 0.00110922
*RES
1 rx_i *1387:I 22.288 
*END

*D_NET *39 0.00213473
*CONN
*P rx_ready_i I
*I *1388:I I *D gf180mcu_fd_sc_mcu7t5v0__dlyb_1
*CAP
1 rx_ready_i 0.000319217
2 *1388:I 0.000319217
3 *1388:I rx_valid_o 0.00055891
4 *1388:I *1216:A1 0.000111711
5 *1388:I *283:48 6.98206e-05
6 *1388:I *291:8 1.07369e-05
7 char_event_o *1388:I 0
8 err_overflow_o *1388:I 0.000639264
9 err_parity_o *1388:I 0.00010585
*RES
1 rx_ready_i *1388:I 15.0636 
*END

*D_NET *40 0.00137177
*CONN
*P rx_valid_o O
*I *1408:Z O *D gf180mcu_fd_sc_mcu7t5v0__dlyb_1
*CAP
1 rx_valid_o 7.48781e-05
2 *1408:Z 7.48781e-05
3 char_event_o rx_valid_o 0.000113016
4 err_parity_o rx_valid_o 0.000550087
5 *1388:I rx_valid_o 0.00055891
*RES
1 *1408:Z rx_valid_o 12.5676 
*END

*D_NET *41 0.00996711
*CONN
*I *1167:A1 I *D gf180mcu_fd_sc_mcu7t5v0__nand2_1
*I *1287:A1 I *D gf180mcu_fd_sc_mcu7t5v0__oai211_1
*I *1159:A2 I *D gf180mcu_fd_sc_mcu7t5v0__nor2_1
*I *1318:A2 I *D gf180mcu_fd_sc_mcu7t5v0__nand4_1
*I *1276:A2 I *D gf180mcu_fd_sc_mcu7t5v0__nor3_1
*I *1322:Q O *D gf180mcu_fd_sc_mcu7t5v0__dffrnq_1
*CAP
1 *1167:A1 0.000126333
2 *1287:A1 0
3 *1159:A2 2.84666e-05
4 *1318:A2 0.000193355
5 *1276:A2 5.51546e-05
6 *1322:Q 0.000241536
7 *41:55 0.000474138
8 *41:16 0.000504558
9 *41:12 0.000587919
10 *41:8 0.000892744
11 *1159:A2 *1209:A1 7.87395e-06
12 *1159:A2 *194:19 0
13 *1159:A2 *197:16 7.90367e-05
14 *1167:A1 *1167:A2 7.87395e-06
15 *1167:A1 *1287:B 0.00010264
16 *1167:A1 *1369:I 0.000107033
17 *1167:A1 *1396:I 0.00023882
18 *1167:A1 *42:25 0.000339402
19 *1276:A2 *43:22 4.07478e-05
20 *1276:A2 *43:29 0.000178541
21 *1276:A2 *83:15 2.16156e-05
22 *1318:A2 *1276:A1 0.000115856
23 *1318:A2 *1318:A1 4.16548e-05
24 *1318:A2 *42:42 0.000159183
25 *1318:A2 *83:15 0.000248386
26 *1318:A2 *83:26 1.71326e-05
27 *1318:A2 *240:66 1.07369e-05
28 *41:8 *1284:A2 0.000262946
29 *41:8 *1369:I 9.57756e-06
30 *41:8 *110:10 0.000761151
31 *41:12 *1280:A2 0
32 *41:12 *194:19 0
33 *41:12 *197:16 0.00127872
34 *41:16 *1209:A1 0.000656897
35 *41:16 *42:42 4.0934e-05
36 *41:16 *42:44 0.000107843
37 *41:16 *194:10 2.17601e-05
38 *41:55 *1369:I 0.000107043
39 *41:55 *1396:I 0.000280581
40 *41:55 *43:14 9.73071e-05
41 *41:55 *43:22 0.000263703
42 *41:55 *110:10 0.00105348
43 *41:55 *194:10 0
44 *41:55 *262:14 0.000204432
*RES
1 *1322:Q *41:8 11.808 
2 *41:8 *41:12 7.932 
3 *41:12 *41:16 7.308 
4 *41:16 *1276:A2 9.52 
5 *41:16 *1318:A2 11.184 
6 *41:12 *1159:A2 4.812 
7 *41:8 *41:55 14.096 
8 *41:55 *1287:A1 9 
9 *41:55 *1167:A1 11.08 
*END

*D_NET *42 0.0188289
*CONN
*I *1268:A1 I *D gf180mcu_fd_sc_mcu7t5v0__nand2_1
*I *1159:A1 I *D gf180mcu_fd_sc_mcu7t5v0__nor2_1
*I *1284:A1 I *D gf180mcu_fd_sc_mcu7t5v0__oai21_1
*I *1285:I0 I *D gf180mcu_fd_sc_mcu7t5v0__mux2_2
*I *1168:A1 I *D gf180mcu_fd_sc_mcu7t5v0__oai21_1
*I *1138:I I *D gf180mcu_fd_sc_mcu7t5v0__clkinv_1
*I *1287:C I *D gf180mcu_fd_sc_mcu7t5v0__oai211_1
*I *1323:Q O *D gf180mcu_fd_sc_mcu7t5v0__dffrnq_1
*CAP
1 *1268:A1 0.000592747
2 *1159:A1 2.30625e-05
3 *1284:A1 0
4 *1285:I0 0.000485356
5 *1168:A1 0.000578246
6 *1138:I 2.84097e-05
7 *1287:C 0
8 *1323:Q 0.000809365
9 *42:61 0.000948484
10 *42:44 0.00143709
11 *42:42 0.000748625
12 *42:38 0.00105514
13 *42:25 0.000636876
14 *42:14 0.00128528
15 *1138:I *1318:A1 0.000156839
16 *1138:I *83:15 1.91879e-05
17 *1159:A1 *1209:A1 0.000113027
18 *1159:A1 *197:16 1.60428e-05
19 *1168:A1 *110:34 8.67129e-05
20 *1168:A1 *283:56 0.000600498
21 *1168:A1 *283:64 2.24654e-05
22 *1268:A1 *1166:A3 0.000208543
23 *1268:A1 *1166:A4 0.000488479
24 *1268:A1 *1269:A3 0.000122244
25 *1268:A1 *1270:B 9.00155e-05
26 *1268:A1 *1318:A1 2.14739e-05
27 *1268:A1 *240:58 5.13977e-05
28 *1268:A1 *240:66 0.000275455
29 *1268:A1 *244:78 0.000776635
30 *1285:I0 *1281:A1 1.78817e-06
31 *1285:I0 *1283:A2 0.000539953
32 *1285:I0 *1284:A2 1.71326e-05
33 *1285:I0 *1284:B 0.000259996
34 *1285:I0 *1285:S 0.000134354
35 *1285:I0 *1369:I 4.04741e-05
36 *1285:I0 *197:24 2.38773e-05
37 *1285:I0 *197:39 8.29965e-06
38 *42:14 *1289:A2 0.000103788
39 *42:14 *1289:B 0.000102412
40 *42:14 *1323:RN 0
41 *42:14 *43:14 0.00044646
42 *42:14 *197:39 0.000106025
43 *42:14 *244:80 1.01781e-05
44 *42:14 *258:8 0.000597045
45 *42:25 *1167:A2 3.10673e-05
46 *42:25 *1287:B 1.72294e-05
47 *42:25 *43:14 3.98614e-06
48 *42:25 *83:15 0.000167142
49 *42:25 *110:10 0.000113027
50 *42:25 *244:78 0.000214386
51 *42:25 *244:80 7.58561e-05
52 *42:38 *1318:A1 0.00013764
53 *42:38 *244:78 0.00012524
54 *42:42 *1209:A1 0.00066881
55 *42:42 *1212:A1 0.000100567
56 *42:42 *1212:A2 0.000230002
57 *42:42 *1276:A1 1.06742e-05
58 *42:42 *1318:A4 0.000435869
59 *42:61 *1282:B 3.10673e-05
60 *42:61 *1284:A2 0.000165826
61 *42:61 *1322:RN 0
62 *42:61 *110:25 0.0012022
63 *42:61 *110:34 0.000297021
64 *42:61 *197:24 8.44956e-05
65 *42:61 *283:64 0
66 *1167:A1 *42:25 0.000339402
67 *1318:A2 *42:42 0.000159183
68 *41:16 *42:42 4.0934e-05
69 *41:16 *42:44 0.000107843
*RES
1 *1323:Q *42:14 20.676 
2 *42:14 *1287:C 4.5 
3 *42:14 *42:25 5.304 
4 *42:25 *1138:I 5.124 
5 *42:25 *42:38 1.456 
6 *42:38 *42:42 8.764 
7 *42:42 *42:44 2.808 
8 *42:44 *1168:A1 14.72 
9 *42:44 *42:61 9.804 
10 *42:61 *1285:I0 17.972 
11 *42:61 *1284:A1 4.5 
12 *42:42 *1159:A1 9.312 
13 *42:38 *1268:A1 11.78 
*END

*D_NET *43 0.0129183
*CONN
*I *1288:A1 I *D gf180mcu_fd_sc_mcu7t5v0__oai21_1
*I *1139:I I *D gf180mcu_fd_sc_mcu7t5v0__clkinv_1
*I *1212:A1 I *D gf180mcu_fd_sc_mcu7t5v0__nand3_1
*I *1209:A1 I *D gf180mcu_fd_sc_mcu7t5v0__xor2_1
*I *1276:A3 I *D gf180mcu_fd_sc_mcu7t5v0__nor3_1
*I *1324:Q O *D gf180mcu_fd_sc_mcu7t5v0__dffrnq_1
*CAP
1 *1288:A1 0.000118233
2 *1139:I 2.66445e-06
3 *1212:A1 0.000362043
4 *1209:A1 0.000320457
5 *1276:A3 0
6 *1324:Q 0.00104163
7 *43:29 0.000737282
8 *43:22 0.00039943
9 *43:14 0.000955491
10 *43:8 0.00176804
11 *1139:I *1287:B 5.13977e-05
12 *1209:A1 *1209:A2 0.000219099
13 *1209:A1 *194:19 0.000212437
14 *1209:A1 *197:16 3.49067e-05
15 *1212:A1 *1212:A2 0.000654135
16 *1212:A1 *1318:A4 0.000427051
17 *1212:A1 *1319:A3 0.000352357
18 *1212:A1 *83:15 2.13169e-05
19 *1212:A1 *154:10 6.35093e-06
20 *1212:A1 *262:14 0.000229118
21 *1288:A1 *1288:A2 0.000404285
22 *1288:A1 *1323:CLK 1.46748e-05
23 *43:8 *1324:D 0.000316548
24 *43:8 *283:10 0.000196018
25 *43:8 *283:34 6.69767e-05
26 *43:14 *1280:A1 0
27 *43:14 *1287:B 0.000135913
28 *43:14 *1288:A2 2.24654e-05
29 *43:14 *1289:A2 5.41207e-06
30 *43:14 *1289:B 0.000192201
31 *43:14 *197:39 0.000150264
32 *43:14 *283:10 2.4505e-05
33 *43:22 *1287:A2 2.73715e-06
34 *43:22 *1287:B 3.18325e-05
35 *43:22 *83:15 0.000248884
36 *43:22 *262:14 0.000406474
37 *43:29 *83:15 2.86369e-06
38 *43:29 *262:14 0.000204895
39 *1159:A1 *1209:A1 0.000113027
40 *1159:A2 *1209:A1 7.87395e-06
41 *1276:A2 *43:22 4.07478e-05
42 *1276:A2 *43:29 0.000178541
43 *41:16 *1209:A1 0.000656897
44 *41:55 *43:14 9.73071e-05
45 *41:55 *43:22 0.000263703
46 *42:14 *43:14 0.00044646
47 *42:25 *43:14 3.98614e-06
48 *42:42 *1209:A1 0.00066881
49 *42:42 *1212:A1 0.000100567
*RES
1 *1324:Q *43:8 17.216 
2 *43:8 *43:14 10.116 
3 *43:14 *43:22 4.576 
4 *43:22 *1276:A3 4.5 
5 *43:22 *43:29 0.728 
6 *43:29 *1209:A1 18.7 
7 *43:29 *1212:A1 18.076 
8 *43:14 *1139:I 4.812 
9 *43:8 *1288:A1 10.144 
*END

*D_NET *44 0.000591397
*CONN
*I *1337:D I *D gf180mcu_fd_sc_mcu7t5v0__dffrnq_1
*I *1218:ZN O *D gf180mcu_fd_sc_mcu7t5v0__nor2_1
*CAP
1 *1337:D 0.00024115
2 *1218:ZN 0.00024115
3 *1337:D *1220:A1 1.12327e-05
4 *1337:D *1338:CLK 9.168e-05
5 *1337:D *242:65 6.18411e-06
*RES
1 *1218:ZN *1337:D 11.08 
*END

*D_NET *45 0.001983
*CONN
*I *1347:D I *D gf180mcu_fd_sc_mcu7t5v0__dffrnq_1
*I *1248:ZN O *D gf180mcu_fd_sc_mcu7t5v0__nor3_1
*CAP
1 *1347:D 0.000490265
2 *1248:ZN 0.000490265
3 *1347:D *1241:A1 0.000703355
4 *1347:D *1248:A1 0.000118787
5 *1347:D *1345:CLK 2.08074e-05
6 *1347:D *1348:RN 0
7 *1347:D *254:12 0.000159517
8 *1347:D *281:113 0
*RES
1 *1248:ZN *1347:D 24.032 
*END

*D_NET *46 0.000983117
*CONN
*I *1348:D I *D gf180mcu_fd_sc_mcu7t5v0__dffrnq_1
*I *1252:ZN O *D gf180mcu_fd_sc_mcu7t5v0__nor3_1
*CAP
1 *1348:D 0.000415507
2 *1252:ZN 0.000415507
3 *1348:D *1348:CLK 3.1756e-05
4 *1348:D *227:6 1.29379e-05
5 *1348:D *277:8 0.00010741
*RES
1 *1252:ZN *1348:D 12.328 
*END

*D_NET *47 0.000788003
*CONN
*I *1349:D I *D gf180mcu_fd_sc_mcu7t5v0__dffrnq_1
*I *1254:ZN O *D gf180mcu_fd_sc_mcu7t5v0__nor2_1
*CAP
1 *1349:D 0.00017279
2 *1254:ZN 0.00017279
3 *1349:D *1254:A1 0.000419276
4 *1349:D *1254:A2 2.24654e-05
5 *1349:D *243:112 6.8199e-07
*RES
1 *1254:ZN *1349:D 10.768 
*END

*D_NET *48 0.000921149
*CONN
*I *1350:D I *D gf180mcu_fd_sc_mcu7t5v0__dffrnq_1
*I *1258:ZN O *D gf180mcu_fd_sc_mcu7t5v0__nor3_1
*CAP
1 *1350:D 0.000388747
2 *1258:ZN 0.000388747
3 *1350:D *1253:A1 0
4 *1350:D *1258:A2 4.91701e-05
5 *1350:D *227:25 0
6 *1350:D *227:47 0
7 *1350:D *243:112 9.4485e-05
*RES
1 *1258:ZN *1350:D 11.6 
*END

*D_NET *49 0.000477209
*CONN
*I *1351:D I *D gf180mcu_fd_sc_mcu7t5v0__dffrnq_1
*I *1261:ZN O *D gf180mcu_fd_sc_mcu7t5v0__nor3_1
*CAP
1 *1351:D 0.000201196
2 *1261:ZN 0.000201196
3 *1351:D *1261:A3 6.69436e-05
4 *1351:D *1351:CLK 7.87395e-06
*RES
1 *1261:ZN *1351:D 10.664 
*END

*D_NET *50 0.000407658
*CONN
*I *1352:D I *D gf180mcu_fd_sc_mcu7t5v0__dffrnq_1
*I *1263:ZN O *D gf180mcu_fd_sc_mcu7t5v0__aoi211_1
*CAP
1 *1352:D 9.19919e-05
2 *1263:ZN 9.19919e-05
3 *1352:D *1352:CLK 5.45754e-05
4 *1352:D *230:12 0.000169099
*RES
1 *1263:ZN *1352:D 10.144 
*END

*D_NET *51 0.000840373
*CONN
*I *1338:D I *D gf180mcu_fd_sc_mcu7t5v0__dffrnq_1
*I *1220:ZN O *D gf180mcu_fd_sc_mcu7t5v0__nor2_1
*CAP
1 *1338:D 0.00020594
2 *1220:ZN 0.00020594
3 *1338:D *1164:A2 0
4 *1338:D *1220:A1 0.000428493
5 *1338:D *1338:CLK 0
*RES
1 *1220:ZN *1338:D 11.08 
*END

*D_NET *52 0.00160785
*CONN
*I *1339:D I *D gf180mcu_fd_sc_mcu7t5v0__dffrnq_1
*I *1223:ZN O *D gf180mcu_fd_sc_mcu7t5v0__nor3_1
*CAP
1 *1339:D 0.000803926
2 *1223:ZN 0.000803926
3 *1339:D *224:12 0
*RES
1 *1223:ZN *1339:D 14.096 
*END

*D_NET *53 0.00118665
*CONN
*I *1340:D I *D gf180mcu_fd_sc_mcu7t5v0__dffrnq_1
*I *1226:ZN O *D gf180mcu_fd_sc_mcu7t5v0__nor3_1
*CAP
1 *1340:D 0.00031282
2 *1226:ZN 0.00031282
3 *1340:D *1341:CLK 4.36604e-05
4 *1340:D *232:10 0.000380213
5 *1340:D *281:52 0.000137141
*RES
1 *1226:ZN *1340:D 12.12 
*END

*D_NET *54 0.000635049
*CONN
*I *1341:D I *D gf180mcu_fd_sc_mcu7t5v0__dffrnq_1
*I *1228:ZN O *D gf180mcu_fd_sc_mcu7t5v0__nor2_1
*CAP
1 *1341:D 0.000108557
2 *1228:ZN 0.000108557
3 *1341:D *1228:A1 0.000417934
*RES
1 *1228:ZN *1341:D 10.144 
*END

*D_NET *55 0.00178943
*CONN
*I *1342:D I *D gf180mcu_fd_sc_mcu7t5v0__dffrnq_1
*I *1232:ZN O *D gf180mcu_fd_sc_mcu7t5v0__nor3_1
*CAP
1 *1342:D 0.000567741
2 *1232:ZN 0.000567741
3 *1342:D *1172:A2 0
4 *1342:D *233:6 0
5 *1342:D *281:16 0.000653943
*RES
1 *1232:ZN *1342:D 23.2 
*END

*D_NET *56 0.000631563
*CONN
*I *1343:D I *D gf180mcu_fd_sc_mcu7t5v0__dffrnq_1
*I *1235:ZN O *D gf180mcu_fd_sc_mcu7t5v0__nor2_1
*CAP
1 *1343:D 6.56549e-05
2 *1235:ZN 6.56549e-05
3 *1343:D *1235:A2 0.000428493
4 *1343:D *1343:CLK 7.17602e-05
*RES
1 *1235:ZN *1343:D 10.144 
*END

*D_NET *57 0.00219594
*CONN
*I *1344:D I *D gf180mcu_fd_sc_mcu7t5v0__dffrnq_1
*I *1238:Z O *D gf180mcu_fd_sc_mcu7t5v0__and4_1
*CAP
1 *1344:D 0.000402141
2 *1238:Z 0.000402141
3 *1344:D *1342:CLK 6.18411e-06
4 *1344:D *1365:I 0.000593816
5 *1344:D *237:14 0.000126483
6 *1344:D *242:26 0.000647758
7 *1344:D *281:102 1.74189e-05
*RES
1 *1238:Z *1344:D 22.264 
*END

*D_NET *58 0.00115148
*CONN
*I *1345:D I *D gf180mcu_fd_sc_mcu7t5v0__dffrnq_1
*I *1241:ZN O *D gf180mcu_fd_sc_mcu7t5v0__nor2_1
*CAP
1 *1345:D 0.000233867
2 *1241:ZN 0.000233867
3 *1345:D *1241:A2 0.00033778
4 *1345:D *1345:CLK 0.0001339
5 *1345:D *238:12 0.000149923
6 *1345:D *254:12 6.21457e-05
*RES
1 *1241:ZN *1345:D 11.6 
*END

*D_NET *59 0.000895084
*CONN
*I *1346:D I *D gf180mcu_fd_sc_mcu7t5v0__dffrnq_1
*I *1244:ZN O *D gf180mcu_fd_sc_mcu7t5v0__nor3_1
*CAP
1 *1346:D 0.000321889
2 *1244:ZN 0.000321889
3 *1346:D *1346:CLK 1.12327e-05
4 *1346:D *276:84 0.000114873
5 *26:10 *1346:D 0.0001252
*RES
1 *1244:ZN *1346:D 11.392 
*END

*D_NET *60 0.000423355
*CONN
*I *1353:D I *D gf180mcu_fd_sc_mcu7t5v0__dffrnq_1
*I *1211:ZN O *D gf180mcu_fd_sc_mcu7t5v0__aoi21_1
*CAP
1 *1353:D 0.000148478
2 *1211:ZN 0.000148478
3 *1353:D *244:35 0.000126399
*RES
1 *1211:ZN *1353:D 10.352 
*END

*D_NET *61 0.000905822
*CONN
*I *1354:D I *D gf180mcu_fd_sc_mcu7t5v0__dffsnq_1
*I *1264:Z O *D gf180mcu_fd_sc_mcu7t5v0__or2_1
*CAP
1 *1354:D 0.000430213
2 *1264:Z 0.000430213
3 *1354:D *1264:A1 4.53959e-05
*RES
1 *1264:Z *1354:D 12.12 
*END

*D_NET *62 0.0026402
*CONN
*I *1355:D I *D gf180mcu_fd_sc_mcu7t5v0__dffsnq_1
*I *1265:Z O *D gf180mcu_fd_sc_mcu7t5v0__or2_1
*CAP
1 *1355:D 0.0010812
2 *1265:Z 0.0010812
3 *1355:D *1283:A1 5.45754e-05
4 *1355:D *1322:D 0.000127703
5 *1355:D *1322:CLK 9.32111e-05
6 *1355:D *1369:I 4.21153e-05
7 *1355:D *237:10 0.000159505
8 *1355:D *244:35 6.8199e-07
*RES
1 *1265:Z *1355:D 17.424 
*END

*D_NET *63 0.000895374
*CONN
*I *1356:D I *D gf180mcu_fd_sc_mcu7t5v0__dffsnq_1
*I *1266:ZN O *D gf180mcu_fd_sc_mcu7t5v0__nand2_1
*CAP
1 *1356:D 2.84108e-05
2 *1266:ZN 2.84108e-05
3 *1356:D *1269:A2 0.000419276
4 *1356:D *1319:A3 0.000419276
*RES
1 *1266:ZN *1356:D 10.144 
*END

*D_NET *64 0.00441483
*CONN
*I *1314:B I *D gf180mcu_fd_sc_mcu7t5v0__aoi21_1
*I *1273:A2 I *D gf180mcu_fd_sc_mcu7t5v0__xnor2_1
*I *1312:A2 I *D gf180mcu_fd_sc_mcu7t5v0__nand2_1
*I *1316:A2 I *D gf180mcu_fd_sc_mcu7t5v0__nand4_1
*I *1334:Q O *D gf180mcu_fd_sc_mcu7t5v0__dffrnq_1
*CAP
1 *1314:B 0
2 *1273:A2 8.99516e-05
3 *1312:A2 0
4 *1316:A2 0.000130125
5 *1334:Q 8.21021e-05
6 *64:23 0.000302041
7 *64:12 0.000546327
8 *64:6 0.000286216
9 *1273:A2 *1274:A2 0.000417612
10 *1273:A2 *193:10 1.42358e-05
11 *1273:A2 *292:41 0.000125283
12 *1316:A2 *1314:A1 3.22108e-05
13 *1316:A2 *1314:A2 3.4596e-05
14 *1316:A2 *1316:A1 0.000125251
15 *1316:A2 *1316:A4 4.91944e-05
16 *64:6 *1314:A1 1.12327e-05
17 *64:6 *1316:A1 7.02352e-05
18 *64:6 *241:77 7.02352e-05
19 *64:12 *1314:A1 2.38773e-05
20 *64:12 *241:77 3.3698e-05
21 *64:12 *282:31 1.51772e-05
22 *64:12 *292:25 0.00019118
23 *64:23 *1314:A2 0.000358225
24 *64:23 *292:25 0.000657053
25 *64:23 *292:41 0.000748772
*RES
1 *1334:Q *64:6 5.436 
2 *64:6 *64:12 5.956 
3 *64:12 *1316:A2 10.144 
4 *64:12 *64:23 3.64 
5 *64:23 *1312:A2 9 
6 *64:23 *1273:A2 10.56 
7 *64:6 *1314:B 4.5 
*END

*D_NET *65 0.00200924
*CONN
*I *1275:A1 I *D gf180mcu_fd_sc_mcu7t5v0__nand3_1
*I *1156:I I *D gf180mcu_fd_sc_mcu7t5v0__clkinv_1
*I *1335:Q O *D gf180mcu_fd_sc_mcu7t5v0__dffrnq_1
*CAP
1 *1275:A1 4.9725e-05
2 *1156:I 0.000133342
3 *1335:Q 0.000621373
4 *65:12 0.00080444
5 *1275:A1 *193:10 5.61634e-05
6 *1275:A1 *282:59 0
7 *65:12 *1313:A2 0
8 *65:12 *193:10 1.12327e-05
9 *65:12 *219:8 0
10 *65:12 *282:59 0.000332968
*RES
1 *1335:Q *65:12 18.492 
2 *65:12 *1156:I 5.644 
3 *65:12 *1275:A1 5.02 
*END

*D_NET *66 0.000850104
*CONN
*I *1321:D I *D gf180mcu_fd_sc_mcu7t5v0__dffrnq_1
*I *1271:ZN O *D gf180mcu_fd_sc_mcu7t5v0__clkinv_1
*CAP
1 *1321:D 0.000346726
2 *1271:ZN 0.000346726
3 *1321:D *1266:A2 2.08074e-05
4 *1321:D *1369:I 0.000135844
5 *1321:D *284:31 0
*RES
1 *1271:ZN *1321:D 20.704 
*END

*D_NET *67 0.00080964
*CONN
*I *1322:D I *D gf180mcu_fd_sc_mcu7t5v0__dffrnq_1
*I *1283:ZN O *D gf180mcu_fd_sc_mcu7t5v0__nor2_1
*CAP
1 *1322:D 0.000320594
2 *1283:ZN 0.000320594
3 *1322:D *1322:CLK 4.07478e-05
4 *1355:D *1322:D 0.000127703
*RES
1 *1283:ZN *1322:D 11.6 
*END

*D_NET *68 0.000410832
*CONN
*I *1323:D I *D gf180mcu_fd_sc_mcu7t5v0__dffrnq_1
*I *1286:Z O *D gf180mcu_fd_sc_mcu7t5v0__and2_1
*CAP
1 *1323:D 0.000205416
2 *1286:Z 0.000205416
*RES
1 *1286:Z *1323:D 10.144 
*END

*D_NET *69 0.000747728
*CONN
*I *1324:D I *D gf180mcu_fd_sc_mcu7t5v0__dffrnq_1
*I *1289:ZN O *D gf180mcu_fd_sc_mcu7t5v0__aoi21_1
*CAP
1 *1324:D 0.00021559
2 *1289:ZN 0.00021559
3 *43:8 *1324:D 0.000316548
*RES
1 *1289:ZN *1324:D 20.184 
*END

*D_NET *70 0.00139643
*CONN
*I *1325:D I *D gf180mcu_fd_sc_mcu7t5v0__dffsnq_1
*I *1291:Z O *D gf180mcu_fd_sc_mcu7t5v0__mux2_2
*CAP
1 *1325:D 0.000382725
2 *1291:Z 0.000382725
3 *1325:D *1325:SETN 0.000553376
4 *1325:D *266:10 7.75984e-05
*RES
1 *1291:Z *1325:D 22.368 
*END

*D_NET *71 0.000694979
*CONN
*I *1326:D I *D gf180mcu_fd_sc_mcu7t5v0__dffsnq_1
*I *1292:Z O *D gf180mcu_fd_sc_mcu7t5v0__mux2_2
*CAP
1 *1326:D 7.35088e-05
2 *1292:Z 7.35088e-05
3 *1326:D *245:28 0.000419265
4 *1326:D *245:39 3.4596e-05
5 *1326:D *269:8 9.41008e-05
*RES
1 *1292:Z *1326:D 10.144 
*END

*D_NET *72 0.00151569
*CONN
*I *1327:D I *D gf180mcu_fd_sc_mcu7t5v0__dffsnq_1
*I *1293:Z O *D gf180mcu_fd_sc_mcu7t5v0__mux2_2
*CAP
1 *1327:D 0.000119252
2 *1293:Z 0.000119252
3 *1327:D *270:21 2.14739e-05
4 *1327:D *271:19 0.00036721
5 *1327:D *282:81 0.000888506
*RES
1 *1293:Z *1327:D 11.6 
*END

*D_NET *73 0.00157863
*CONN
*I *1328:D I *D gf180mcu_fd_sc_mcu7t5v0__dffsnq_1
*I *1294:Z O *D gf180mcu_fd_sc_mcu7t5v0__mux2_2
*CAP
1 *1328:D 0.000759136
2 *1294:Z 0.000759136
3 *1328:D *1328:SETN 6.03575e-05
4 *1328:D *245:47 0
5 *1328:D *271:19 0
*RES
1 *1294:Z *1328:D 23.824 
*END

*D_NET *74 0.00100516
*CONN
*I *1329:D I *D gf180mcu_fd_sc_mcu7t5v0__dffsnq_1
*I *1297:Z O *D gf180mcu_fd_sc_mcu7t5v0__mux2_2
*CAP
1 *1329:D 0.000502581
2 *1297:Z 0.000502581
3 *1329:D *284:67 0
*RES
1 *1297:Z *1329:D 21.952 
*END

*D_NET *75 0.00212482
*CONN
*I *1330:D I *D gf180mcu_fd_sc_mcu7t5v0__dffsnq_1
*I *1302:ZN O *D gf180mcu_fd_sc_mcu7t5v0__oai21_1
*CAP
1 *1330:D 0.000210376
2 *1302:ZN 0.000210376
3 *1330:D *1302:A1 0.000500772
4 *1330:D *1302:A2 0
5 *1330:D *278:91 0.0012033
*RES
1 *1302:ZN *1330:D 12.536 
*END

*D_NET *76 0.000892989
*CONN
*I *1331:D I *D gf180mcu_fd_sc_mcu7t5v0__dffsnq_1
*I *1306:ZN O *D gf180mcu_fd_sc_mcu7t5v0__oai21_1
*CAP
1 *1331:D 0.00030977
2 *1306:ZN 0.00030977
3 *1331:D *1300:A2 0.00027345
4 *1331:D *1300:B 0
5 *1331:D *280:34 0
6 *1331:D *284:67 0
*RES
1 *1306:ZN *1331:D 20.912 
*END

*D_NET *77 0.000977449
*CONN
*I *1332:D I *D gf180mcu_fd_sc_mcu7t5v0__dffsnq_1
*I *1309:ZN O *D gf180mcu_fd_sc_mcu7t5v0__oai21_1
*CAP
1 *1332:D 0.000323937
2 *1309:ZN 0.000323937
3 *1332:D *1309:A2 0.000105973
4 *1332:D *278:31 1.78817e-06
5 *1332:D *278:70 0.000221813
*RES
1 *1309:ZN *1332:D 12.328 
*END

*D_NET *78 0.00126224
*CONN
*I *1333:D I *D gf180mcu_fd_sc_mcu7t5v0__dffrnq_1
*I *1311:Z O *D gf180mcu_fd_sc_mcu7t5v0__mux2_2
*CAP
1 *1333:D 0.000512142
2 *1311:Z 0.000512142
3 *1333:D *1335:CLK 9.41125e-05
4 *1333:D *1353:CLK 7.17602e-05
5 *1333:D *243:26 7.87395e-06
6 *1333:D *253:12 6.42118e-05
*RES
1 *1311:Z *1333:D 22.16 
*END

*D_NET *79 0.00253873
*CONN
*I *1334:D I *D gf180mcu_fd_sc_mcu7t5v0__dffrnq_1
*I *1315:ZN O *D gf180mcu_fd_sc_mcu7t5v0__nor2_1
*CAP
1 *1334:D 0.000588101
2 *1315:ZN 0.000588101
3 *1334:D *1345:RN 0
4 *1334:D *243:26 0.0010264
5 *1334:D *281:102 0.000336128
6 *1334:D *282:31 0
*RES
1 *1315:ZN *1334:D 24.24 
*END

*D_NET *80 0.000614666
*CONN
*I *1335:D I *D gf180mcu_fd_sc_mcu7t5v0__dffrnq_1
*I *1317:ZN O *D gf180mcu_fd_sc_mcu7t5v0__oai21_1
*CAP
1 *1335:D 0.000307333
2 *1317:ZN 0.000307333
3 *1335:D *1335:CLK 0
*RES
1 *1317:ZN *1335:D 11.288 
*END

*D_NET *81 0.00086885
*CONN
*I *1336:D I *D gf180mcu_fd_sc_mcu7t5v0__dffrnq_1
*I *1320:ZN O *D gf180mcu_fd_sc_mcu7t5v0__oai21_1
*CAP
1 *1336:D 0.000204948
2 *1320:ZN 0.000204948
3 *1336:D *1320:A2 0.000408707
4 *1336:D *1320:B 5.02468e-05
*RES
1 *1320:ZN *1336:D 10.872 
*END

*D_NET *82 0.00118584
*CONN
*I *1318:A1 I *D gf180mcu_fd_sc_mcu7t5v0__nand4_1
*I *1276:A1 I *D gf180mcu_fd_sc_mcu7t5v0__nor3_1
*I *1138:ZN O *D gf180mcu_fd_sc_mcu7t5v0__clkinv_1
*CAP
1 *1318:A1 0.000218078
2 *1276:A1 9.69112e-05
3 *1138:ZN 0
4 *82:4 0.000314989
5 *1318:A1 *83:15 3.71321e-05
6 *1318:A1 *240:66 3.4596e-05
7 *1138:I *1318:A1 0.000156839
8 *1268:A1 *1318:A1 2.14739e-05
9 *1318:A2 *1276:A1 0.000115856
10 *1318:A2 *1318:A1 4.16548e-05
11 *42:38 *1318:A1 0.00013764
12 *42:42 *1276:A1 1.06742e-05
*RES
1 *1138:ZN *82:4 4.5 
2 *82:4 *1276:A1 14.436 
3 *82:4 *1318:A1 6.268 
*END

*D_NET *83 0.00470725
*CONN
*I *1167:A2 I *D gf180mcu_fd_sc_mcu7t5v0__nand2_1
*I *1160:A1 I *D gf180mcu_fd_sc_mcu7t5v0__nand2_1
*I *1166:A1 I *D gf180mcu_fd_sc_mcu7t5v0__nand4_1
*I *1318:A3 I *D gf180mcu_fd_sc_mcu7t5v0__nand4_1
*I *1287:B I *D gf180mcu_fd_sc_mcu7t5v0__oai211_1
*I *1139:ZN O *D gf180mcu_fd_sc_mcu7t5v0__clkinv_1
*CAP
1 *1167:A2 7.29617e-05
2 *1160:A1 0
3 *1166:A1 0.000150702
4 *1318:A3 0
5 *1287:B 0.000161591
6 *1139:ZN 3.6366e-05
7 *83:26 0.000387243
8 *83:15 0.000673435
9 *83:6 0.000707813
10 *1166:A1 *1278:A1 3.34231e-05
11 *1166:A1 *240:66 5.82145e-05
12 *1167:A2 *110:10 0.000113027
13 *83:15 *240:66 1.73223e-05
14 *83:15 *262:14 5.47431e-06
15 *83:26 *1278:A1 0
16 *83:26 *240:66 0.000445345
17 *83:26 *262:8 0.000682718
18 *83:26 *262:14 0
19 *1138:I *83:15 1.91879e-05
20 *1139:I *1287:B 5.13977e-05
21 *1167:A1 *1167:A2 7.87395e-06
22 *1167:A1 *1287:B 0.00010264
23 *1212:A1 *83:15 2.13169e-05
24 *1276:A2 *83:15 2.16156e-05
25 *1318:A1 *83:15 3.71321e-05
26 *1318:A2 *83:15 0.000248386
27 *1318:A2 *83:26 1.71326e-05
28 *42:25 *1167:A2 3.10673e-05
29 *42:25 *1287:B 1.72294e-05
30 *42:25 *83:15 0.000167142
31 *43:14 *1287:B 0.000135913
32 *43:22 *1287:B 3.18325e-05
33 *43:22 *83:15 0.000248884
34 *43:29 *83:15 2.86369e-06
*RES
1 *1139:ZN *83:6 4.812 
2 *83:6 *1287:B 6.268 
3 *83:6 *83:15 4.472 
4 *83:15 *1318:A3 4.5 
5 *83:15 *83:26 3.64 
6 *83:26 *1166:A1 5.748 
7 *83:26 *1160:A1 4.5 
8 *83:6 *1167:A2 5.54 
*END

*D_NET *84 0.00999586
*CONN
*I *1296:A1 I *D gf180mcu_fd_sc_mcu7t5v0__oai31_1
*I *1165:A1 I *D gf180mcu_fd_sc_mcu7t5v0__nor2_1
*I *1267:A1 I *D gf180mcu_fd_sc_mcu7t5v0__xor2_1
*I *1140:ZN O *D gf180mcu_fd_sc_mcu7t5v0__clkinv_1
*CAP
1 *1296:A1 0.00101287
2 *1165:A1 0.000272513
3 *1267:A1 0.000528258
4 *1140:ZN 0.000393311
5 *84:26 0.00142033
6 *1165:A1 *1165:A2 1.71326e-05
7 *1165:A1 *1277:A2 0.000885821
8 *1165:A1 *1279:A1 0.000122801
9 *1165:A1 *1311:I1 0.000106014
10 *1165:A1 *194:19 2.36218e-05
11 *1165:A1 *253:12 0.000165016
12 *1267:A1 *205:10 0
13 *1267:A1 *295:23 0.000980785
14 *1296:A1 *1273:A1 0.000570124
15 *1296:A1 *1274:A1 0.000799133
16 *1296:A1 *1277:A1 0.00036751
17 *1296:A1 *1277:A2 3.17907e-05
18 *1296:A1 *1296:B 0.000134833
19 *1296:A1 *1313:B 0.000118926
20 *1296:A1 *205:10 0.000318062
21 *1296:A1 *245:6 0.00127323
22 *1296:A1 *257:44 3.04322e-05
23 *84:26 *1311:I1 0.000155524
24 *84:26 *205:10 2.43345e-05
25 *84:26 *253:12 0.00021957
26 *84:26 *295:23 2.39167e-05
*RES
1 *1140:ZN *1267:A1 14.928 
2 *1267:A1 *84:26 11.08 
3 *84:26 *1165:A1 12.952 
4 *84:26 *1296:A1 31 
*END

*D_NET *85 0.0035053
*CONN
*I *1266:A1 I *D gf180mcu_fd_sc_mcu7t5v0__nand2_1
*I *1166:A3 I *D gf180mcu_fd_sc_mcu7t5v0__nand4_1
*I *1141:ZN O *D gf180mcu_fd_sc_mcu7t5v0__clkinv_1
*CAP
1 *1266:A1 0.000230569
2 *1166:A3 5.24352e-05
3 *1141:ZN 0.000237426
4 *85:8 0.00052043
5 *1166:A3 *1270:B 0.000194522
6 *1166:A3 *240:66 0.000491544
7 *1266:A1 *1269:A1 0
8 *1266:A1 *1269:A3 0.000220531
9 *1266:A1 *283:54 0.000746465
10 *85:8 *1269:A1 6.72809e-05
11 *85:8 *1278:A1 0.000355286
12 *85:8 *283:54 0.000180263
13 *1268:A1 *1166:A3 0.000208543
*RES
1 *1141:ZN *85:8 11.808 
2 *85:8 *1166:A3 10.352 
3 *85:8 *1266:A1 11.496 
*END

*D_NET *86 0.000630786
*CONN
*I *1190:A1 I *D gf180mcu_fd_sc_mcu7t5v0__aoi22_1
*I *1142:ZN O *D gf180mcu_fd_sc_mcu7t5v0__clkinv_1
*CAP
1 *1190:A1 0.000102182
2 *1142:ZN 0.000102182
3 *1190:A1 *1142:I 0.00014584
4 *1190:A1 *1198:A2 0
5 *1190:A1 *235:46 0.000280581
*RES
1 *1142:ZN *1190:A1 19.56 
*END

*D_NET *87 0.00758922
*CONN
*I *1198:A2 I *D gf180mcu_fd_sc_mcu7t5v0__aoi22_1
*I *1219:A2 I *D gf180mcu_fd_sc_mcu7t5v0__xor2_1
*I *1143:ZN O *D gf180mcu_fd_sc_mcu7t5v0__clkinv_1
*CAP
1 *1198:A2 0.00209245
2 *1219:A2 0.000386665
3 *1143:ZN 0
4 *87:6 0.00247912
5 *1198:A2 *1190:A2 8.5894e-05
6 *1198:A2 *1196:A2 3.88877e-05
7 *1198:A2 *1201:A2 6.87243e-05
8 *1198:A2 *1205:A2 0.000260689
9 *1198:A2 *1205:B1 0
10 *1198:A2 *1205:B2 0.000411261
11 *1198:A2 *1205:C1 9.58004e-06
12 *1198:A2 *1205:C2 0.000242621
13 *1198:A2 *89:25 0
14 *1198:A2 *97:8 1.84122e-05
15 *1198:A2 *231:46 0.000115867
16 *1219:A2 *1164:A2 0.000732955
17 *1219:A2 *1176:A2 6.2942e-05
18 *1219:A2 *1192:A1 0
19 *1219:A2 *1200:A2 9.92487e-05
20 *1219:A2 *1219:A1 9.56679e-05
21 *1219:A2 *1224:A1 0.000164725
22 *1219:A2 *224:52 7.3514e-05
23 *1219:A2 *224:56 0.00013467
24 *1219:A2 *231:46 1.53275e-05
25 *1190:A1 *1198:A2 0
*RES
1 *1143:ZN *87:6 9 
2 *87:6 *1219:A2 13.576 
3 *87:6 *1198:A2 24.392 
*END

*D_NET *88 0.00257176
*CONN
*I *1202:A2 I *D gf180mcu_fd_sc_mcu7t5v0__aoi22_1
*I *1204:A2 I *D gf180mcu_fd_sc_mcu7t5v0__oai22_1
*I *1144:ZN O *D gf180mcu_fd_sc_mcu7t5v0__clkinv_1
*CAP
1 *1202:A2 4.39828e-05
2 *1204:A2 1.66927e-05
3 *1144:ZN 0.000518975
4 *88:12 0.00057965
5 *1202:A2 *1203:A3 5.77431e-06
6 *1202:A2 *1207:A2 1.40331e-05
7 *1204:A2 *1204:A1 0.000355296
8 *1204:A2 *1206:A2 0.000355296
9 *88:12 *1203:A1 0
10 *88:12 *1203:A3 1.83469e-05
11 *88:12 *1203:A4 0.000177054
12 *88:12 *1207:A2 4.04798e-05
13 *88:12 *1207:A3 0.000298408
14 *88:12 *1362:I 0
15 *88:12 *250:23 0.000147775
*RES
1 *1144:ZN *88:12 9.076 
2 *88:12 *1204:A2 14.436 
3 *88:12 *1202:A2 4.812 
*END

*D_NET *89 0.0090188
*CONN
*I *1202:B2 I *D gf180mcu_fd_sc_mcu7t5v0__aoi22_1
*I *1205:A2 I *D gf180mcu_fd_sc_mcu7t5v0__oai222_1
*I *1163:A2 I *D gf180mcu_fd_sc_mcu7t5v0__xor2_1
*I *1227:A1 I *D gf180mcu_fd_sc_mcu7t5v0__xor2_1
*I *1145:ZN O *D gf180mcu_fd_sc_mcu7t5v0__clkinv_1
*CAP
1 *1202:B2 8.28168e-05
2 *1205:A2 6.38946e-05
3 *1163:A2 0.000300185
4 *1227:A1 0.000100134
5 *1145:ZN 0.000444446
6 *89:29 0.000400946
7 *89:25 0.00116412
8 *89:10 0.00158902
9 *1163:A2 *1163:A1 1.71326e-05
10 *1163:A2 *1181:A1 0.000302296
11 *1163:A2 *1184:A1 0
12 *1163:A2 *1190:B1 4.3003e-05
13 *1163:A2 *251:10 0.000151919
14 *1202:B2 *1200:A4 6.41072e-05
15 *1202:B2 *1206:A2 0.000531148
16 *1202:B2 *1207:A4 6.8042e-06
17 *1202:B2 *251:16 0.000689386
18 *1227:A1 *1188:A2 0.000653493
19 *89:10 *1188:A2 1.23478e-05
20 *89:25 *1188:A2 0.001133
21 *89:25 *1203:A1 0.000157034
22 *89:25 *1203:A2 2.39156e-06
23 *89:25 *1203:A3 0
24 *89:25 *1207:A4 1.90529e-05
25 *89:29 *1181:A1 0.000282857
26 *89:29 *251:10 3.32153e-05
27 *89:29 *251:16 0.000513353
28 *1198:A2 *1205:A2 0.000260689
29 *1198:A2 *89:25 0
*RES
1 *1145:ZN *89:10 12.848 
2 *89:10 *1227:A1 10.664 
3 *89:10 *89:25 12.716 
4 *89:25 *89:29 6.268 
5 *89:29 *1163:A2 11.912 
6 *89:29 *1205:A2 9.728 
7 *89:25 *1202:B2 15.788 
*END

*D_NET *90 0.00197774
*CONN
*I *1190:B1 I *D gf180mcu_fd_sc_mcu7t5v0__aoi22_1
*I *1205:B1 I *D gf180mcu_fd_sc_mcu7t5v0__oai222_1
*I *1146:ZN O *D gf180mcu_fd_sc_mcu7t5v0__clkinv_1
*CAP
1 *1190:B1 0.000367457
2 *1205:B1 0.000615904
3 *1146:ZN 0.000248447
4 *1190:B1 *1163:A1 2.39523e-06
5 *1190:B1 *1205:B2 0.000389787
6 *1205:B1 *1184:A1 0
7 *1205:B1 *1205:C1 0.000131561
8 *1205:B1 *1205:C2 0.000179186
9 *1163:A2 *1190:B1 4.3003e-05
10 *1198:A2 *1205:B1 0
*RES
1 *1146:ZN *1205:B1 11.184 
2 *1205:B1 *1190:B1 12.016 
*END

*D_NET *91 0.00272429
*CONN
*I *1199:A1 I *D gf180mcu_fd_sc_mcu7t5v0__aoi221_1
*I *1204:B1 I *D gf180mcu_fd_sc_mcu7t5v0__oai22_1
*I *1147:ZN O *D gf180mcu_fd_sc_mcu7t5v0__clkinv_1
*CAP
1 *1199:A1 0
2 *1204:B1 0.000648336
3 *1147:ZN 8.41603e-05
4 *91:10 0.000732496
5 *1204:B1 *1179:A1 1.23682e-05
6 *1204:B1 *1179:A2 2.95323e-05
7 *1204:B1 *1199:A2 0.000771824
8 *1204:B1 *241:21 8.14679e-05
9 *91:10 *1178:A2 0.000364104
10 *91:10 *1179:A1 0
*RES
1 *1147:ZN *91:10 14.436 
2 *91:10 *1204:B1 10.636 
3 *91:10 *1199:A1 4.5 
*END

*D_NET *92 0.00578828
*CONN
*I *1185:A2 I *D gf180mcu_fd_sc_mcu7t5v0__xor2_1
*I *1236:A1 I *D gf180mcu_fd_sc_mcu7t5v0__nand2_1
*I *1148:ZN O *D gf180mcu_fd_sc_mcu7t5v0__clkinv_1
*CAP
1 *1185:A2 0.000380349
2 *1236:A1 0.000668585
3 *1148:ZN 0
4 *92:4 0.00104893
5 *1185:A2 *1148:I 0.000113016
6 *1185:A2 *1185:A1 0.000298415
7 *1185:A2 *1195:A1 0.000112665
8 *1185:A2 *1195:A2 0.000104542
9 *1185:A2 *168:27 0.000335858
10 *1185:A2 *281:102 0
11 *1236:A1 *1148:I 0.000388517
12 *1236:A1 *1208:A1 7.772e-05
13 *1236:A1 *1217:A3 7.96024e-05
14 *1236:A1 *1236:A2 4.07478e-05
15 *1236:A1 *1238:A2 0.000899022
16 *1236:A1 *1238:A3 3.35514e-05
17 *1236:A1 *1365:I 0.000500761
18 *1236:A1 *130:8 0.000208736
19 *1236:A1 *168:12 0
20 *1236:A1 *168:27 0.000150795
21 *1236:A1 *236:40 0
22 *1236:A1 *242:26 0.000346468
*RES
1 *1148:ZN *92:4 4.5 
2 *92:4 *1236:A1 21.716 
3 *92:4 *1185:A2 9.18 
*END

*D_NET *93 0.00474894
*CONN
*I *1170:A1 I *D gf180mcu_fd_sc_mcu7t5v0__xor2_1
*I *1199:B1 I *D gf180mcu_fd_sc_mcu7t5v0__aoi221_1
*I *1149:ZN O *D gf180mcu_fd_sc_mcu7t5v0__clkinv_1
*CAP
1 *1170:A1 0.00052088
2 *1199:B1 4.85615e-05
3 *1149:ZN 0.000153639
4 *93:12 0.000723081
5 *1170:A1 *1147:I 0.00016407
6 *1170:A1 *1178:A2 0.00113114
7 *1170:A1 *1198:B2 0
8 *1170:A1 *1366:I 0.000103788
9 *1170:A1 *168:27 1.40331e-05
10 *1170:A1 *254:12 0.00125053
11 *1199:B1 *1199:A2 1.07369e-05
12 *1199:B1 *238:48 3.22108e-05
13 *93:12 *1178:A2 0.000271764
14 *93:12 *1198:B2 0
15 *93:12 *1203:A3 5.90026e-05
16 *93:12 *238:48 0.000265501
*RES
1 *1149:ZN *93:12 10.768 
2 *93:12 *1199:B1 9.312 
3 *93:12 *1170:A1 16.488 
*END

*D_NET *94 0.00292218
*CONN
*I *1239:A1 I *D gf180mcu_fd_sc_mcu7t5v0__nor2_1
*I *1243:A1 I *D gf180mcu_fd_sc_mcu7t5v0__nor3_1
*I *1194:A2 I *D gf180mcu_fd_sc_mcu7t5v0__aoi22_1
*I *1150:ZN O *D gf180mcu_fd_sc_mcu7t5v0__clkinv_1
*CAP
1 *1239:A1 8.39388e-05
2 *1243:A1 8.42235e-05
3 *1194:A2 7.06594e-05
4 *1150:ZN 0
5 *94:17 0.000432233
6 *94:4 0.00033473
7 *1194:A2 *1149:I 4.07478e-05
8 *1194:A2 *238:48 0.000249521
9 *1194:A2 *255:14 0.000660687
10 *1239:A1 *1242:A1 7.06078e-06
11 *1239:A1 *168:42 0.000114515
12 *1239:A1 *172:14 6.88177e-05
13 *1243:A1 *1242:A1 1.36398e-06
14 *1243:A1 *1242:A2 0
15 *1243:A1 *168:42 3.22108e-05
16 *1243:A1 *172:14 1.07369e-05
17 *94:17 *239:14 5.0164e-05
18 *94:17 *243:56 0.000680568
*RES
1 *1150:ZN *94:4 4.5 
2 *94:4 *1194:A2 6.268 
3 *94:4 *94:17 11.392 
4 *94:17 *1243:A1 5.124 
5 *94:17 *1239:A1 5.436 
*END

*D_NET *95 0.00138907
*CONN
*I *1194:B1 I *D gf180mcu_fd_sc_mcu7t5v0__aoi22_1
*I *1151:ZN O *D gf180mcu_fd_sc_mcu7t5v0__clkinv_1
*CAP
1 *1194:B1 0.000134676
2 *1151:ZN 0.000134676
3 *1194:B1 *1198:B2 0.000698193
4 *1194:B1 *1199:C 0.000116063
5 *1194:B1 *1203:A3 0.000256285
6 *1194:B1 *226:30 4.91818e-05
*RES
1 *1151:ZN *1194:B1 20.496 
*END

*D_NET *96 0.00546806
*CONN
*I *1243:A2 I *D gf180mcu_fd_sc_mcu7t5v0__nor3_1
*I *1198:B2 I *D gf180mcu_fd_sc_mcu7t5v0__aoi22_1
*I *1152:ZN O *D gf180mcu_fd_sc_mcu7t5v0__clkinv_1
*CAP
1 *1243:A2 1.43175e-05
2 *1198:B2 0.000980514
3 *1152:ZN 1.90242e-05
4 *96:8 0.00101386
5 *1198:B2 *1151:I 0.000605863
6 *1198:B2 *1152:I 0.000103788
7 *1198:B2 *1197:A1 7.18709e-05
8 *1198:B2 *1198:B1 0.000228035
9 *1198:B2 *1199:C 0.000491783
10 *1198:B2 *1206:A1 3.31163e-05
11 *1198:B2 *1363:I 8.94231e-05
12 *1198:B2 *168:35 1.65112e-05
13 *1198:B2 *168:42 9.35542e-06
14 *1198:B2 *238:48 5.35362e-06
15 *1243:A2 *239:12 0.000319414
16 *1243:A2 *243:56 0.000355296
17 *96:8 *239:12 0.000107648
18 *96:8 *239:14 0.000116466
19 *96:8 *243:56 0.000188231
20 *1170:A1 *1198:B2 0
21 *1194:B1 *1198:B2 0.000698193
22 *93:12 *1198:B2 0
*RES
1 *1152:ZN *96:8 9.52 
2 *96:8 *1198:B2 27.672 
3 *96:8 *1243:A2 9.936 
*END

*D_NET *97 0.0026623
*CONN
*I *1196:A1 I *D gf180mcu_fd_sc_mcu7t5v0__aoi21_1
*I *1205:C1 I *D gf180mcu_fd_sc_mcu7t5v0__oai222_1
*I *1153:ZN O *D gf180mcu_fd_sc_mcu7t5v0__clkinv_1
*CAP
1 *1196:A1 0
2 *1205:C1 0.000461816
3 *1153:ZN 0.000380363
4 *97:8 0.00084218
5 *1205:C1 *1171:A1 4.18052e-05
6 *1205:C1 *1171:A2 0.000182219
7 *1205:C1 *1183:A2 0.000181002
8 *1205:C1 *1184:A1 0
9 *1205:C1 *1184:A2 0
10 *1205:C1 *1196:A2 5.18522e-05
11 *1205:C1 *1205:C2 0.000248778
12 *1205:C1 *230:32 1.23682e-05
13 *97:8 *1198:B1 0
14 *97:8 *230:32 0.000100367
15 *1198:A2 *1205:C1 9.58004e-06
16 *1198:A2 *97:8 1.84122e-05
17 *1205:B1 *1205:C1 0.000131561
*RES
1 *1153:ZN *97:8 7.412 
2 *97:8 *1205:C1 9.076 
3 *97:8 *1196:A1 4.5 
*END

*D_NET *98 0.00218246
*CONN
*I *1216:A1 I *D gf180mcu_fd_sc_mcu7t5v0__nor2_1
*I *1154:ZN O *D gf180mcu_fd_sc_mcu7t5v0__clkinv_1
*CAP
1 *1216:A1 0.000313436
2 *1154:ZN 0.000313436
3 *1216:A1 *1154:I 9.0311e-05
4 *1216:A1 *1397:I 0.000491544
5 *1216:A1 *1408:I 2.81577e-05
6 *1216:A1 *284:31 0.000453164
7 *1216:A1 *291:14 0.000264223
8 err_overflow_o *1216:A1 0.000116476
9 *1388:I *1216:A1 0.000111711
*RES
1 *1154:ZN *1216:A1 22.784 
*END

*D_NET *99 0.00257738
*CONN
*I *1283:A1 I *D gf180mcu_fd_sc_mcu7t5v0__nor2_1
*I *1265:A1 I *D gf180mcu_fd_sc_mcu7t5v0__or2_1
*I *1264:A1 I *D gf180mcu_fd_sc_mcu7t5v0__or2_1
*I *1155:ZN O *D gf180mcu_fd_sc_mcu7t5v0__clkinv_1
*CAP
1 *1283:A1 0.000231643
2 *1265:A1 0
3 *1264:A1 0.000658131
4 *1155:ZN 0.000327556
5 *99:21 0.000231643
6 *99:8 0.000985687
7 *1264:A1 *1354:SETN 9.29362e-06
8 *99:8 *1354:SETN 3.3457e-05
9 *1354:D *1264:A1 4.53959e-05
10 *1355:D *1283:A1 5.45754e-05
*RES
1 *1155:ZN *99:8 10.976 
2 *99:8 *1264:A1 13.368 
3 *99:8 *99:21 4.5 
4 *99:21 *1265:A1 4.5 
5 *99:21 *1283:A1 6.268 
*END

*D_NET *100 0.00203838
*CONN
*I *1316:A3 I *D gf180mcu_fd_sc_mcu7t5v0__nand4_1
*I *1317:A1 I *D gf180mcu_fd_sc_mcu7t5v0__oai21_1
*I *1156:ZN O *D gf180mcu_fd_sc_mcu7t5v0__clkinv_1
*CAP
1 *1316:A3 0
2 *1317:A1 0.000348043
3 *1156:ZN 0.000132093
4 *100:8 0.000480135
5 *1317:A1 *1315:A1 0
6 *1317:A1 *1317:B 0.000311471
7 *1317:A1 *1361:I 4.19755e-05
8 *1317:A1 *241:77 4.01565e-05
9 *1317:A1 *282:31 0.000447626
10 *1317:A1 *282:59 0
11 *100:8 *282:31 0.000232318
12 *100:8 *282:59 0
13 *100:8 *292:25 3.37878e-06
14 *100:8 *292:41 1.18566e-06
*RES
1 *1156:ZN *100:8 10.352 
2 *100:8 *1317:A1 12.744 
3 *100:8 *1316:A3 9 
*END

*D_NET *101 0.000169934
*CONN
*I *1287:A2 I *D gf180mcu_fd_sc_mcu7t5v0__oai211_1
*I *1157:ZN O *D gf180mcu_fd_sc_mcu7t5v0__clkinv_1
*CAP
1 *1287:A2 8.35986e-05
2 *1157:ZN 8.35986e-05
3 *43:22 *1287:A2 2.73715e-06
*RES
1 *1157:ZN *1287:A2 9.728 
*END

*D_NET *102 0.00235216
*CONN
*I *1303:A2 I *D gf180mcu_fd_sc_mcu7t5v0__nand2_1
*I *1158:ZN O *D gf180mcu_fd_sc_mcu7t5v0__clkinv_1
*CAP
1 *1303:A2 0.000670158
2 *1158:ZN 0.000670158
3 *1303:A2 *1303:A1 0.000419276
4 *1303:A2 *1406:I 1.78817e-06
5 *1303:A2 *246:8 4.46939e-05
6 *1303:A2 *257:10 1.32185e-05
7 *1303:A2 *284:61 0
8 rx_data_o[7] *1303:A2 0.000500772
9 *1384:I *1303:A2 3.2098e-05
*RES
1 *1158:ZN *1303:A2 23.824 
*END

*D_NET *103 0.00509002
*CONN
*I *1212:A3 I *D gf180mcu_fd_sc_mcu7t5v0__nand3_1
*I *1166:A4 I *D gf180mcu_fd_sc_mcu7t5v0__nand4_1
*I *1160:A2 I *D gf180mcu_fd_sc_mcu7t5v0__nand2_1
*I *1209:A2 I *D gf180mcu_fd_sc_mcu7t5v0__xor2_1
*I *1159:ZN O *D gf180mcu_fd_sc_mcu7t5v0__nor2_1
*CAP
1 *1212:A3 0.000420031
2 *1166:A4 4.62757e-05
3 *1160:A2 0
4 *1209:A2 0.000387234
5 *1159:ZN 0.000153616
6 *103:29 0.00068363
7 *103:20 0.000450941
8 *1166:A4 *1270:B 0.00033778
9 *1166:A4 *240:66 5.89482e-05
10 *1209:A2 *197:16 0.00035533
11 *1212:A3 *1266:A2 0.000173353
12 *1212:A3 *1270:B 0.000147601
13 *1212:A3 *1319:A3 0.000960784
14 *1212:A3 *244:78 4.29477e-05
15 *103:20 *1269:A1 0
16 *103:20 *109:8 0.000118099
17 *103:29 *1269:A1 0
18 *103:29 *1270:B 4.58667e-05
19 *1209:A1 *1209:A2 0.000219099
20 *1268:A1 *1166:A4 0.000488479
*RES
1 *1159:ZN *1209:A2 11.392 
2 *1209:A2 *103:20 11.184 
3 *103:20 *1160:A2 9 
4 *103:20 *103:29 1.352 
5 *103:29 *1166:A4 10.352 
6 *103:29 *1212:A3 13.472 
*END

*D_NET *104 0.00157566
*CONN
*I *1177:A1 I *D gf180mcu_fd_sc_mcu7t5v0__nor4_1
*I *1161:Z O *D gf180mcu_fd_sc_mcu7t5v0__xor2_1
*CAP
1 *1177:A1 0.000268636
2 *1161:Z 0.000268636
3 *1177:A1 *1177:A2 0.000491544
4 *1177:A1 *1181:A1 0.000257493
5 *1177:A1 *248:14 2.66236e-05
6 *1177:A1 *250:8 0.000238979
7 *1177:A1 *251:10 2.37461e-05
*RES
1 *1161:Z *1177:A1 21.12 
*END

*D_NET *105 0.000776606
*CONN
*I *1180:A1 I *D gf180mcu_fd_sc_mcu7t5v0__nor4_1
*I *1162:Z O *D gf180mcu_fd_sc_mcu7t5v0__xor2_1
*CAP
1 *1180:A1 9.73837e-05
2 *1162:Z 9.73837e-05
3 *1180:A1 *1181:A2 8.10026e-05
4 *1180:A1 *236:40 1.23682e-05
5 *1180:A1 *276:84 0.000488468
*RES
1 *1162:Z *1180:A1 10.352 
*END

*D_NET *106 0.00118878
*CONN
*I *1184:A1 I *D gf180mcu_fd_sc_mcu7t5v0__nand3_1
*I *1163:Z O *D gf180mcu_fd_sc_mcu7t5v0__xor2_1
*CAP
1 *1184:A1 0.000572955
2 *1163:Z 0.000572955
3 *1184:A1 *1171:A1 1.60428e-05
4 *1184:A1 *1184:A2 1.85523e-05
5 *1184:A1 *1205:C2 8.27233e-06
6 *1163:A2 *1184:A1 0
7 *1205:B1 *1184:A1 0
8 *1205:C1 *1184:A1 0
*RES
1 *1163:Z *1184:A1 12.64 
*END

*D_NET *107 0.00143204
*CONN
*I *1177:A2 I *D gf180mcu_fd_sc_mcu7t5v0__nor4_1
*I *1164:Z O *D gf180mcu_fd_sc_mcu7t5v0__xor2_1
*CAP
1 *1177:A2 0.000253578
2 *1164:Z 0.000253578
3 *1177:A2 *1161:A2 4.30799e-05
4 *1177:A2 *1200:A2 0.000384079
5 *1177:A2 *1200:A3 6.18411e-06
6 *1177:A2 *248:14 0
7 *1177:A1 *1177:A2 0.000491544
*RES
1 *1164:Z *1177:A2 12.12 
*END

*D_NET *108 0.00147331
*CONN
*I *1278:A2 I *D gf180mcu_fd_sc_mcu7t5v0__oai22_1
*I *1165:ZN O *D gf180mcu_fd_sc_mcu7t5v0__nor2_1
*CAP
1 *1278:A2 0.00013695
2 *1165:ZN 0.00013695
3 *1278:A2 *1165:A2 0.000316249
4 *1278:A2 *1278:A1 0.000435879
5 *1278:A2 *194:19 2.02353e-05
6 *1278:A2 *283:54 0.000427051
*RES
1 *1165:ZN *1278:A2 20.08 
*END

*D_NET *109 0.00889265
*CONN
*I *1270:B I *D gf180mcu_fd_sc_mcu7t5v0__oai21_1
*I *1168:B I *D gf180mcu_fd_sc_mcu7t5v0__oai21_1
*I *1211:A1 I *D gf180mcu_fd_sc_mcu7t5v0__aoi21_1
*I *1210:A1 I *D gf180mcu_fd_sc_mcu7t5v0__nand2_1
*I *1166:ZN O *D gf180mcu_fd_sc_mcu7t5v0__nand4_1
*CAP
1 *1270:B 0.000614939
2 *1168:B 0
3 *1211:A1 7.24243e-05
4 *1210:A1 0.000112575
5 *1166:ZN 0.00113986
6 *109:10 0.000451337
7 *109:8 0.000791257
8 *1210:A1 *1210:A2 0.00052233
9 *1210:A1 *1211:B 3.646e-05
10 *1211:A1 *244:35 6.32895e-05
11 *1270:B *1269:A1 0.000114411
12 *1270:B *1270:A2 0.000104752
13 *1270:B *240:66 0.000313701
14 *109:8 *1269:A1 0.000691008
15 *109:8 *152:12 0.00105998
16 *109:10 *1210:A2 0.000199998
17 *109:10 *152:12 0.00167045
18 *1166:A3 *1270:B 0.000194522
19 *1166:A4 *1270:B 0.00033778
20 *1212:A3 *1270:B 0.000147601
21 *1268:A1 *1270:B 9.00155e-05
22 *103:20 *109:8 0.000118099
23 *103:29 *1270:B 4.58667e-05
*RES
1 *1166:ZN *109:8 15.968 
2 *109:8 *109:10 4.68 
3 *109:10 *1210:A1 10.56 
4 *109:10 *1211:A1 9.52 
5 *109:8 *1168:B 9 
6 *1166:ZN *1270:B 24.032 
*END

*D_NET *110 0.0138145
*CONN
*I *1269:A1 I *D gf180mcu_fd_sc_mcu7t5v0__nor3_1
*I *1168:A2 I *D gf180mcu_fd_sc_mcu7t5v0__oai21_1
*I *1272:A2 I *D gf180mcu_fd_sc_mcu7t5v0__nor2_1
*I *1284:A2 I *D gf180mcu_fd_sc_mcu7t5v0__oai21_1
*I *1167:ZN O *D gf180mcu_fd_sc_mcu7t5v0__nand2_1
*CAP
1 *1269:A1 0.00081512
2 *1168:A2 7.39383e-05
3 *1272:A2 0
4 *1284:A2 0.000213208
5 *1167:ZN 0.000529624
6 *110:34 0.00129912
7 *110:25 0.000482156
8 *110:10 0.000814927
9 *1168:A2 *152:12 0.000450555
10 *1168:A2 *283:54 0
11 *1269:A1 *1141:I 9.89981e-05
12 *1269:A1 *1269:A3 3.19001e-05
13 *1269:A1 *1278:A1 0
14 *1269:A1 *152:12 0.000298828
15 *1269:A1 *283:54 0
16 *1269:A1 *294:10 0.000202022
17 *1284:A2 *1322:RN 0
18 *1284:A2 *1369:I 3.93803e-05
19 *110:10 *1369:I 0.000274482
20 *110:10 *197:16 0.000450555
21 *110:25 *1272:A1 0.000119928
22 *110:25 *1282:B 0.000876213
23 *110:25 *197:16 0
24 *110:34 *1272:A1 0.00179831
25 *110:34 *283:56 0
26 *1167:A2 *110:10 0.000113027
27 *1168:A1 *110:34 8.67129e-05
28 *1266:A1 *1269:A1 0
29 *1270:B *1269:A1 0.000114411
30 *1285:I0 *1284:A2 1.71326e-05
31 *41:8 *1284:A2 0.000262946
32 *41:8 *110:10 0.000761151
33 *41:55 *110:10 0.00105348
34 *42:25 *110:10 0.000113027
35 *42:61 *1284:A2 0.000165826
36 *42:61 *110:25 0.0012022
37 *42:61 *110:34 0.000297021
38 *85:8 *1269:A1 6.72809e-05
39 *103:20 *1269:A1 0
40 *103:29 *1269:A1 0
41 *109:8 *1269:A1 0.000691008
*RES
1 *1167:ZN *110:10 15.448 
2 *110:10 *1284:A2 11.08 
3 *110:10 *110:25 7.724 
4 *110:25 *1272:A2 4.5 
5 *110:25 *110:34 10.012 
6 *110:34 *1168:A2 10.144 
7 *110:34 *1269:A1 17.632 
*END

*D_NET *111 0.0103595
*CONN
*I *1187:A1 I *D gf180mcu_fd_sc_mcu7t5v0__or4_1
*I *1207:A1 I *D gf180mcu_fd_sc_mcu7t5v0__nand4_1
*I *1168:ZN O *D gf180mcu_fd_sc_mcu7t5v0__oai21_1
*CAP
1 *1187:A1 0
2 *1207:A1 0.000217658
3 *1168:ZN 0.0015949
4 *111:12 0.00181256
5 *1207:A1 *1181:A1 0.00197579
6 *1207:A1 *1187:A2 0.000470944
7 *1207:A1 *1200:A4 0
8 *1207:A1 *1366:I 9.35542e-06
9 *1207:A1 *150:8 0.00239341
10 *1207:A1 *235:46 0
11 *1207:A1 *241:39 0.000146725
12 *111:12 *1187:A2 3.01776e-05
13 *111:12 *1200:A4 0.000277579
14 *111:12 *1208:A2 1.41733e-05
15 *111:12 *1217:A1 9.84216e-05
16 *111:12 *1272:A1 0
17 *111:12 *1335:CLK 2.57828e-05
18 *111:12 *150:8 1.19766e-05
19 *111:12 *240:10 4.91818e-05
20 *111:12 *240:14 0
21 *111:12 *244:12 7.90103e-05
22 *111:12 *244:35 0.000859359
23 *111:12 *283:54 3.01776e-05
24 *111:12 *283:56 0.0002623
*RES
1 *1168:ZN *111:12 28.892 
2 *111:12 *1207:A1 20.988 
3 *111:12 *1187:A1 4.5 
*END

*D_NET *112 0.00106276
*CONN
*I *1182:A1 I *D gf180mcu_fd_sc_mcu7t5v0__nor4_1
*I *1169:Z O *D gf180mcu_fd_sc_mcu7t5v0__xor2_1
*CAP
1 *1182:A1 0.00025357
2 *1169:Z 0.00025357
3 *1182:A1 *1182:A3 0.000154126
4 *1182:A1 *230:32 0.000401498
*RES
1 *1169:Z *1182:A1 11.808 
*END

*D_NET *113 0.000635601
*CONN
*I *1186:A1 I *D gf180mcu_fd_sc_mcu7t5v0__nand2_1
*I *1170:Z O *D gf180mcu_fd_sc_mcu7t5v0__xor2_1
*CAP
1 *1186:A1 0.000190028
2 *1170:Z 0.000190028
3 *1186:A1 *1366:I 7.16472e-05
4 *1186:A1 *241:11 0
5 *1186:A1 *254:12 4.9065e-05
6 *26:10 *1186:A1 0.000134833
*RES
1 *1170:Z *1186:A1 19.872 
*END

*D_NET *114 0.00213226
*CONN
*I *1182:A2 I *D gf180mcu_fd_sc_mcu7t5v0__nor4_1
*I *1171:Z O *D gf180mcu_fd_sc_mcu7t5v0__xor2_1
*CAP
1 *1182:A2 0.000358799
2 *1171:Z 0.000358799
3 *1182:A2 *1184:A2 0.00141467
*RES
1 *1171:Z *1182:A2 12.848 
*END

*D_NET *115 0.00248757
*CONN
*I *1180:A2 I *D gf180mcu_fd_sc_mcu7t5v0__nor4_1
*I *1172:Z O *D gf180mcu_fd_sc_mcu7t5v0__xor2_1
*CAP
1 *1180:A2 0.000562218
2 *1172:Z 0.000562218
3 *1180:A2 *1162:A1 0.000307708
4 *1180:A2 *237:22 0.000712118
5 *1180:A2 *276:84 0.000343311
*RES
1 *1172:Z *1180:A2 15.76 
*END

*D_NET *116 0.000663389
*CONN
*I *1182:A3 I *D gf180mcu_fd_sc_mcu7t5v0__nor4_1
*I *1173:Z O *D gf180mcu_fd_sc_mcu7t5v0__xor2_1
*CAP
1 *1182:A3 0.00022885
2 *1173:Z 0.00022885
3 *1182:A3 *1182:A4 5.15622e-05
4 *1182:A1 *1182:A3 0.000154126
*RES
1 *1173:Z *1182:A3 10.976 
*END

*D_NET *117 0.000679702
*CONN
*I *1182:A4 I *D gf180mcu_fd_sc_mcu7t5v0__nor4_1
*I *1174:Z O *D gf180mcu_fd_sc_mcu7t5v0__xor2_1
*CAP
1 *1182:A4 0.000305036
2 *1174:Z 0.000305036
3 *1182:A4 *279:18 1.80666e-05
4 *1182:A3 *1182:A4 5.15622e-05
*RES
1 *1174:Z *1182:A4 11.184 
*END

*D_NET *118 0.00350846
*CONN
*I *1177:A3 I *D gf180mcu_fd_sc_mcu7t5v0__nor4_1
*I *1175:Z O *D gf180mcu_fd_sc_mcu7t5v0__xor2_1
*CAP
1 *1177:A3 0.000874553
2 *1175:Z 0.000874553
3 *1177:A3 *1183:A1 0.000113016
4 *1177:A3 *1184:A3 9.41008e-05
5 *1177:A3 *1189:A2 5.19755e-05
6 *1177:A3 *1193:A1 0.00101768
7 *1177:A3 *1200:A1 1.5399e-05
8 *1177:A3 *1200:A2 3.26589e-05
9 *1177:A3 *1200:A3 5.41725e-05
10 *1177:A3 *1200:A4 0.000114849
11 *1177:A3 *1201:A4 0.000265501
*RES
1 *1175:Z *1177:A3 16.8 
*END

*D_NET *119 0.00198776
*CONN
*I *1177:A4 I *D gf180mcu_fd_sc_mcu7t5v0__nor4_1
*I *1176:Z O *D gf180mcu_fd_sc_mcu7t5v0__xor2_1
*CAP
1 *1177:A4 0.000559686
2 *1176:Z 0.000559686
3 *1177:A4 *1161:A1 0.000295726
4 *1177:A4 *1181:A1 0.000256285
5 *1177:A4 *1200:A2 5.56981e-05
6 *1177:A4 *248:14 0.000260682
*RES
1 *1176:Z *1177:A4 13.784 
*END

*D_NET *120 0.00792871
*CONN
*I *1181:A1 I *D gf180mcu_fd_sc_mcu7t5v0__nand2_1
*I *1177:ZN O *D gf180mcu_fd_sc_mcu7t5v0__nor4_1
*CAP
1 *1181:A1 0.00102789
2 *1177:ZN 0.00102789
3 *1181:A1 *1162:A1 0.000789196
4 *1181:A1 *1200:A2 0.000100568
5 *1181:A1 *1200:A4 4.68955e-05
6 *1181:A1 *1207:A4 0.000665882
7 *1181:A1 *235:46 0
8 *1181:A1 *250:8 0.000271554
9 *1181:A1 *250:23 0.000536816
10 *1181:A1 *251:10 0.000179248
11 *1181:A1 *251:16 0.000208046
12 *1163:A2 *1181:A1 0.000302296
13 *1177:A1 *1181:A1 0.000257493
14 *1177:A4 *1181:A1 0.000256285
15 *1207:A1 *1181:A1 0.00197579
16 *89:29 *1181:A1 0.000282857
*RES
1 *1177:ZN *1181:A1 35.472 
*END

*D_NET *121 0.00281715
*CONN
*I *1180:A3 I *D gf180mcu_fd_sc_mcu7t5v0__nor4_1
*I *1178:Z O *D gf180mcu_fd_sc_mcu7t5v0__xor2_1
*CAP
1 *1180:A3 0.000530829
2 *1178:Z 0.000530829
3 *1180:A3 *1147:I 1.07369e-05
4 *1180:A3 *1180:A4 0.00141159
5 *1180:A3 *241:21 8.18603e-05
6 *1180:A3 *276:84 0.000251306
*RES
1 *1178:Z *1180:A3 15.136 
*END

*D_NET *122 0.00214391
*CONN
*I *1180:A4 I *D gf180mcu_fd_sc_mcu7t5v0__nor4_1
*I *1179:Z O *D gf180mcu_fd_sc_mcu7t5v0__xor2_1
*CAP
1 *1180:A4 0.000334067
2 *1179:Z 0.000334067
3 *1180:A4 *241:21 6.41811e-05
4 *1180:A3 *1180:A4 0.00141159
*RES
1 *1179:Z *1180:A4 12.848 
*END

*D_NET *123 0.00058949
*CONN
*I *1181:A2 I *D gf180mcu_fd_sc_mcu7t5v0__nand2_1
*I *1180:ZN O *D gf180mcu_fd_sc_mcu7t5v0__nor4_1
*CAP
1 *1181:A2 0.000180881
2 *1180:ZN 0.000180881
3 *1181:A2 *236:40 0.000146725
4 *1180:A1 *1181:A2 8.10026e-05
*RES
1 *1180:ZN *1181:A2 10.664 
*END

*D_NET *124 0.00133735
*CONN
*I *1187:A2 I *D gf180mcu_fd_sc_mcu7t5v0__or4_1
*I *1181:ZN O *D gf180mcu_fd_sc_mcu7t5v0__nand2_1
*CAP
1 *1187:A2 0.000160005
2 *1181:ZN 0.000160005
3 *1187:A2 *1200:A4 2.05709e-05
4 *1187:A2 *1366:I 0.000406983
5 *1187:A2 *150:8 7.29199e-05
6 *1187:A2 *241:39 1.57479e-05
7 *1207:A1 *1187:A2 0.000470944
8 *111:12 *1187:A2 3.01776e-05
*RES
1 *1181:ZN *1187:A2 20.496 
*END

*D_NET *125 0.00288616
*CONN
*I *1184:A2 I *D gf180mcu_fd_sc_mcu7t5v0__nand3_1
*I *1182:ZN O *D gf180mcu_fd_sc_mcu7t5v0__nor4_1
*CAP
1 *1184:A2 0.000573669
2 *1182:ZN 0.000573669
3 *1184:A2 *1171:A1 5.77024e-05
4 *1184:A2 *1183:A2 1.94379e-05
5 *1184:A2 *1184:A3 0
6 *1184:A2 *230:32 0.000228466
7 *1182:A2 *1184:A2 0.00141467
8 *1184:A1 *1184:A2 1.85523e-05
9 *1205:C1 *1184:A2 0
*RES
1 *1182:ZN *1184:A2 15.24 
*END

*D_NET *126 0.00121993
*CONN
*I *1184:A3 I *D gf180mcu_fd_sc_mcu7t5v0__nand3_1
*I *1183:ZN O *D gf180mcu_fd_sc_mcu7t5v0__xnor2_1
*CAP
1 *1184:A3 0.000298639
2 *1183:ZN 0.000298639
3 *1184:A3 *1201:A4 4.50196e-05
4 *1184:A3 *252:12 0.000483536
5 *1177:A3 *1184:A3 9.41008e-05
6 *1184:A2 *1184:A3 0
*RES
1 *1183:ZN *1184:A3 20.496 
*END

*D_NET *127 0.005051
*CONN
*I *1187:A3 I *D gf180mcu_fd_sc_mcu7t5v0__or4_1
*I *1184:ZN O *D gf180mcu_fd_sc_mcu7t5v0__nand3_1
*CAP
1 *1187:A3 0.00137002
2 *1184:ZN 0.00137002
3 *1187:A3 *1171:A2 0
4 *1187:A3 *1187:A4 9.09749e-05
5 *1187:A3 *1195:A2 9.03046e-05
6 *1187:A3 *1200:A4 0.000999104
7 *1187:A3 *1201:A4 0
8 *1187:A3 *1205:C2 0.000183893
9 *1187:A3 *1206:A3 0.000185622
10 *1187:A3 *1207:A2 0.000398713
11 *1187:A3 *1366:I 0.000256274
12 *1187:A3 *236:40 1.49279e-05
13 *1187:A3 *252:12 9.11499e-05
*RES
1 *1184:ZN *1187:A3 34.432 
*END

*D_NET *128 0.000210429
*CONN
*I *1186:A2 I *D gf180mcu_fd_sc_mcu7t5v0__nand2_1
*I *1185:Z O *D gf180mcu_fd_sc_mcu7t5v0__xor2_1
*CAP
1 *1186:A2 5.38168e-05
2 *1185:Z 5.38168e-05
3 *1186:A2 *1187:A4 5.13977e-05
4 *1186:A2 *168:27 5.13977e-05
*RES
1 *1185:Z *1186:A2 9.728 
*END

*D_NET *129 0.00148198
*CONN
*I *1187:A4 I *D gf180mcu_fd_sc_mcu7t5v0__or4_1
*I *1186:ZN O *D gf180mcu_fd_sc_mcu7t5v0__nand2_1
*CAP
1 *1187:A4 0.000361294
2 *1186:ZN 0.000361294
3 *1187:A4 *1200:A4 0.000134833
4 *1187:A4 *1366:I 0.000250694
5 *1187:A4 *168:27 0.000231494
6 *1186:A2 *1187:A4 5.13977e-05
7 *1187:A3 *1187:A4 9.09749e-05
*RES
1 *1186:ZN *1187:A4 13.16 
*END

*D_NET *130 0.00124526
*CONN
*I *1217:A1 I *D gf180mcu_fd_sc_mcu7t5v0__nand3_1
*I *1208:A1 I *D gf180mcu_fd_sc_mcu7t5v0__and2_1
*I *1187:Z O *D gf180mcu_fd_sc_mcu7t5v0__or4_1
*CAP
1 *1217:A1 8.49507e-05
2 *1208:A1 6.86894e-05
3 *1187:Z 7.98206e-05
4 *130:8 0.000233461
5 *1208:A1 *1217:A3 3.4596e-05
6 *1208:A1 *168:27 5.57504e-05
7 *1217:A1 *1208:A2 0.000131718
8 *1217:A1 *150:8 9.11499e-05
9 *130:8 *168:27 8.02494e-05
10 *1236:A1 *1208:A1 7.772e-05
11 *1236:A1 *130:8 0.000208736
12 *111:12 *1217:A1 9.84216e-05
*RES
1 *1187:Z *130:8 5.54 
2 *130:8 *1208:A1 5.332 
3 *130:8 *1217:A1 14.852 
*END

*D_NET *131 0.000914318
*CONN
*I *1203:A1 I *D gf180mcu_fd_sc_mcu7t5v0__and4_1
*I *1188:ZN O *D gf180mcu_fd_sc_mcu7t5v0__xnor2_1
*CAP
1 *1203:A1 0.000357734
2 *1188:ZN 0.000357734
3 *1203:A1 *1203:A2 4.18157e-05
4 *88:12 *1203:A1 0
5 *89:25 *1203:A1 0.000157034
*RES
1 *1188:ZN *1203:A1 11.912 
*END

*D_NET *132 0.00268997
*CONN
*I *1200:A1 I *D gf180mcu_fd_sc_mcu7t5v0__nor4_1
*I *1189:Z O *D gf180mcu_fd_sc_mcu7t5v0__xor2_1
*CAP
1 *1200:A1 0.000413455
2 *1189:Z 0.000413455
3 *1200:A1 *1179:A1 0.00032044
4 *1200:A1 *1183:A1 1.19584e-05
5 *1200:A1 *1189:A1 5.63044e-06
6 *1200:A1 *1189:A2 3.4596e-05
7 *1200:A1 *1193:A1 2.54509e-05
8 *1200:A1 *1198:A1 0
9 *1200:A1 *1200:A3 0.00106152
10 *1200:A1 *1201:A4 2.98389e-05
11 *1200:A1 *285:10 0.000358225
12 *1177:A3 *1200:A1 1.5399e-05
*RES
1 *1189:Z *1200:A1 22.576 
*END

*D_NET *133 0.00208115
*CONN
*I *1203:A2 I *D gf180mcu_fd_sc_mcu7t5v0__and4_1
*I *1190:ZN O *D gf180mcu_fd_sc_mcu7t5v0__aoi22_1
*CAP
1 *1203:A2 0.000309366
2 *1190:ZN 0.000309366
3 *1203:A2 *1142:I 0.0006747
4 *1203:A2 *1203:A3 3.65102e-05
5 *1203:A2 *235:46 0.000441649
6 *1203:A2 *250:23 0.000265355
7 *1203:A1 *1203:A2 4.18157e-05
8 *89:25 *1203:A2 2.39156e-06
*RES
1 *1190:ZN *1203:A2 22.992 
*END

*D_NET *134 0.00366973
*CONN
*I *1206:A1 I *D gf180mcu_fd_sc_mcu7t5v0__nor3_1
*I *1191:Z O *D gf180mcu_fd_sc_mcu7t5v0__xor2_1
*CAP
1 *1206:A1 0.00141824
2 *1191:Z 0.00141824
3 *1206:A1 *1197:A1 0.000113027
4 *1206:A1 *1201:A2 2.35237e-05
5 *1206:A1 *1201:A4 0.000229096
6 *1206:A1 *1203:A3 3.96072e-05
7 *1206:A1 *1207:A2 0.000356379
8 *1206:A1 *226:30 3.84987e-05
9 *1198:B2 *1206:A1 3.31163e-05
*RES
1 *1191:Z *1206:A1 20.024 
*END

*D_NET *135 0.00409731
*CONN
*I *1200:A2 I *D gf180mcu_fd_sc_mcu7t5v0__nor4_1
*I *1192:Z O *D gf180mcu_fd_sc_mcu7t5v0__xor2_1
*CAP
1 *1200:A2 0.000597355
2 *1192:Z 0.000597355
3 *1200:A2 *1161:A1 0.00127314
4 *1200:A2 *1161:A2 0
5 *1200:A2 *1164:A2 0.000567994
6 *1200:A2 *1176:A1 0.000179963
7 *1200:A2 *1192:A1 5.60123e-05
8 *1200:A2 *1200:A3 6.85302e-05
9 *1200:A2 *1200:A4 4.41433e-05
10 *1200:A2 *224:56 4.05628e-05
11 *1200:A2 *248:14 0
12 *1200:A2 *251:10 0
13 *1177:A2 *1200:A2 0.000384079
14 *1177:A3 *1200:A2 3.26589e-05
15 *1177:A4 *1200:A2 5.56981e-05
16 *1181:A1 *1200:A2 0.000100568
17 *1219:A2 *1200:A2 9.92487e-05
*RES
1 *1192:Z *1200:A2 26.528 
*END

*D_NET *136 0.00258272
*CONN
*I *1200:A3 I *D gf180mcu_fd_sc_mcu7t5v0__nor4_1
*I *1193:Z O *D gf180mcu_fd_sc_mcu7t5v0__xor2_1
*CAP
1 *1200:A3 0.000461625
2 *1193:Z 0.000461625
3 *1200:A3 *1189:A2 0.000220496
4 *1200:A3 *248:14 0.000200831
5 *1200:A3 *252:12 2.38656e-05
6 *1200:A3 *285:10 2.38773e-05
7 *1177:A2 *1200:A3 6.18411e-06
8 *1177:A3 *1200:A3 5.41725e-05
9 *1200:A1 *1200:A3 0.00106152
10 *1200:A2 *1200:A3 6.85302e-05
*RES
1 *1193:Z *1200:A3 15.76 
*END

*D_NET *137 0.00490825
*CONN
*I *1203:A3 I *D gf180mcu_fd_sc_mcu7t5v0__and4_1
*I *1194:ZN O *D gf180mcu_fd_sc_mcu7t5v0__aoi22_1
*CAP
1 *1203:A3 0.00165816
2 *1194:ZN 0.00165816
3 *1203:A3 *1149:I 0.00033778
4 *1203:A3 *1199:A2 0
5 *1203:A3 *1201:A3 2.08074e-05
6 *1203:A3 *1202:B1 0.000105621
7 *1203:A3 *1203:A4 0.000307101
8 *1203:A3 *1207:A2 7.40928e-05
9 *1203:A3 *1207:A4 3.63581e-05
10 *1203:A3 *226:30 0.000226307
11 *1203:A3 *238:48 6.83362e-05
12 *1194:B1 *1203:A3 0.000256285
13 *1202:A2 *1203:A3 5.77431e-06
14 *1203:A2 *1203:A3 3.65102e-05
15 *1206:A1 *1203:A3 3.96072e-05
16 *88:12 *1203:A3 1.83469e-05
17 *89:25 *1203:A3 0
18 *93:12 *1203:A3 5.90026e-05
*RES
1 *1194:ZN *1203:A3 21.584 
*END

*D_NET *138 0.0107144
*CONN
*I *1200:A4 I *D gf180mcu_fd_sc_mcu7t5v0__nor4_1
*I *1195:Z O *D gf180mcu_fd_sc_mcu7t5v0__xor2_1
*CAP
1 *1200:A4 0.00133136
2 *1195:Z 0.00133136
3 *1200:A4 *1162:A1 1.54218e-05
4 *1200:A4 *1195:A2 0
5 *1200:A4 *1199:A2 0.000283521
6 *1200:A4 *1204:A1 2.47495e-05
7 *1200:A4 *1205:C2 0.000216413
8 *1200:A4 *1206:A2 0.0014264
9 *1200:A4 *1206:A3 0.000626417
10 *1200:A4 *1366:I 5.78216e-06
11 *1200:A4 *168:27 0.000419276
12 *1200:A4 *237:22 0.000701122
13 *1200:A4 *251:10 0.00244319
14 *1200:A4 *251:16 0.000133111
15 *1200:A4 *252:12 5.42299e-05
16 *1177:A3 *1200:A4 0.000114849
17 *1181:A1 *1200:A4 4.68955e-05
18 *1187:A2 *1200:A4 2.05709e-05
19 *1187:A3 *1200:A4 0.000999104
20 *1187:A4 *1200:A4 0.000134833
21 *1200:A2 *1200:A4 4.41433e-05
22 *1202:B2 *1200:A4 6.41072e-05
23 *1207:A1 *1200:A4 0
24 *111:12 *1200:A4 0.000277579
*RES
1 *1195:Z *1200:A4 39.84 
*END

*D_NET *139 0.00115345
*CONN
*I *1201:A1 I *D gf180mcu_fd_sc_mcu7t5v0__and4_1
*I *1196:ZN O *D gf180mcu_fd_sc_mcu7t5v0__aoi21_1
*CAP
1 *1201:A1 0.000149981
2 *1196:ZN 0.000149981
3 *1201:A1 *1179:A1 0.000853491
4 *1201:A1 *1198:A1 0
*RES
1 *1196:ZN *1201:A1 20.184 
*END

*D_NET *140 0.00200375
*CONN
*I *1199:C I *D gf180mcu_fd_sc_mcu7t5v0__aoi221_1
*I *1197:Z O *D gf180mcu_fd_sc_mcu7t5v0__xor2_1
*CAP
1 *1199:C 0.000563058
2 *1197:Z 0.000563058
3 *1199:C *1194:B2 1.60028e-05
4 *1199:C *1359:I 1.80094e-05
5 *1199:C *238:48 0.000196169
6 *1199:C *239:14 3.37332e-05
7 *1199:C *241:21 5.87709e-06
8 *1199:C *255:14 0
9 *1194:B1 *1199:C 0.000116063
10 *1198:B2 *1199:C 0.000491783
*RES
1 *1197:Z *1199:C 23.616 
*END

*D_NET *141 0.000827995
*CONN
*I *1201:A2 I *D gf180mcu_fd_sc_mcu7t5v0__and4_1
*I *1198:ZN O *D gf180mcu_fd_sc_mcu7t5v0__aoi22_1
*CAP
1 *1201:A2 0.000367874
2 *1198:ZN 0.000367874
3 *1198:A2 *1201:A2 6.87243e-05
4 *1206:A1 *1201:A2 2.35237e-05
*RES
1 *1198:ZN *1201:A2 11.184 
*END

*D_NET *142 0.00180504
*CONN
*I *1201:A3 I *D gf180mcu_fd_sc_mcu7t5v0__and4_1
*I *1199:ZN O *D gf180mcu_fd_sc_mcu7t5v0__aoi221_1
*CAP
1 *1201:A3 0.000486258
2 *1199:ZN 0.000486258
3 *1201:A3 *1178:A2 0
4 *1201:A3 *1179:A1 0.000652201
5 *1201:A3 *1199:A2 0.000159517
6 *1203:A3 *1201:A3 2.08074e-05
*RES
1 *1199:ZN *1201:A3 23.2 
*END

*D_NET *143 0.00497768
*CONN
*I *1201:A4 I *D gf180mcu_fd_sc_mcu7t5v0__and4_1
*I *1200:ZN O *D gf180mcu_fd_sc_mcu7t5v0__nor4_1
*CAP
1 *1201:A4 0.00105631
2 *1200:ZN 0.00105631
3 *1201:A4 *1171:A2 0.0015011
4 *1201:A4 *1179:A1 2.41368e-05
5 *1201:A4 *1183:A2 0.000524326
6 *1201:A4 *226:34 0.000184989
7 *1201:A4 *252:12 4.28178e-05
8 *1201:A4 *289:10 1.823e-05
9 *1177:A3 *1201:A4 0.000265501
10 *1184:A3 *1201:A4 4.50196e-05
11 *1187:A3 *1201:A4 0
12 *1200:A1 *1201:A4 2.98389e-05
13 *1206:A1 *1201:A4 0.000229096
*RES
1 *1200:ZN *1201:A4 29.024 
*END

*D_NET *144 0.00286684
*CONN
*I *1207:A2 I *D gf180mcu_fd_sc_mcu7t5v0__nand4_1
*I *1201:Z O *D gf180mcu_fd_sc_mcu7t5v0__and4_1
*CAP
1 *1207:A2 0.000881331
2 *1201:Z 0.000881331
3 *1207:A2 *1171:A2 0.000142282
4 *1207:A2 *1199:A2 6.7863e-05
5 *1207:A2 *226:30 1.03327e-05
6 *1187:A3 *1207:A2 0.000398713
7 *1202:A2 *1207:A2 1.40331e-05
8 *1203:A3 *1207:A2 7.40928e-05
9 *1206:A1 *1207:A2 0.000356379
10 *88:12 *1207:A2 4.04798e-05
*RES
1 *1201:Z *1207:A2 25.592 
*END

*D_NET *145 0.00137712
*CONN
*I *1203:A4 I *D gf180mcu_fd_sc_mcu7t5v0__and4_1
*I *1202:ZN O *D gf180mcu_fd_sc_mcu7t5v0__aoi22_1
*CAP
1 *1203:A4 0.000164861
2 *1202:ZN 0.000164861
3 *1203:A4 *1202:B1 9.76253e-05
4 *1203:A4 *250:23 0.000465617
5 *1203:A3 *1203:A4 0.000307101
6 *88:12 *1203:A4 0.000177054
*RES
1 *1202:ZN *1203:A4 11.6 
*END

*D_NET *146 0.000587442
*CONN
*I *1207:A3 I *D gf180mcu_fd_sc_mcu7t5v0__nand4_1
*I *1203:Z O *D gf180mcu_fd_sc_mcu7t5v0__and4_1
*CAP
1 *1207:A3 0.000144517
2 *1203:Z 0.000144517
3 *88:12 *1207:A3 0.000298408
*RES
1 *1203:Z *1207:A3 10.456 
*END

*D_NET *147 0.00265171
*CONN
*I *1206:A2 I *D gf180mcu_fd_sc_mcu7t5v0__nor3_1
*I *1204:ZN O *D gf180mcu_fd_sc_mcu7t5v0__oai22_1
*CAP
1 *1206:A2 8.49261e-05
2 *1204:ZN 8.49261e-05
3 *1206:A2 *1162:A1 1.90528e-05
4 *1206:A2 *1204:A1 9.76261e-05
5 *1206:A2 *251:16 5.23324e-05
6 *1200:A4 *1206:A2 0.0014264
7 *1202:B2 *1206:A2 0.000531148
8 *1204:A2 *1206:A2 0.000355296
*RES
1 *1204:ZN *1206:A2 21.64 
*END

*D_NET *148 0.000844377
*CONN
*I *1206:A3 I *D gf180mcu_fd_sc_mcu7t5v0__nor3_1
*I *1205:ZN O *D gf180mcu_fd_sc_mcu7t5v0__oai222_1
*CAP
1 *1206:A3 1.61692e-05
2 *1205:ZN 1.61692e-05
3 *1187:A3 *1206:A3 0.000185622
4 *1200:A4 *1206:A3 0.000626417
*RES
1 *1205:ZN *1206:A3 19.56 
*END

*D_NET *149 0.00156713
*CONN
*I *1207:A4 I *D gf180mcu_fd_sc_mcu7t5v0__nand4_1
*I *1206:ZN O *D gf180mcu_fd_sc_mcu7t5v0__nor3_1
*CAP
1 *1207:A4 0.000298962
2 *1206:ZN 0.000298962
3 *1207:A4 *235:46 0
4 *1207:A4 *250:23 0.000241108
5 *1181:A1 *1207:A4 0.000665882
6 *1202:B2 *1207:A4 6.8042e-06
7 *1203:A3 *1207:A4 3.63581e-05
8 *89:25 *1207:A4 1.90529e-05
*RES
1 *1206:ZN *1207:A4 20.912 
*END

*D_NET *150 0.00438199
*CONN
*I *1208:A2 I *D gf180mcu_fd_sc_mcu7t5v0__and2_1
*I *1217:A2 I *D gf180mcu_fd_sc_mcu7t5v0__nand3_1
*I *1207:ZN O *D gf180mcu_fd_sc_mcu7t5v0__nand4_1
*CAP
1 *1208:A2 0.000217498
2 *1217:A2 0
3 *1207:ZN 0.0005931
4 *150:8 0.000810598
5 *1208:A2 *1217:A3 4.26239e-05
6 *1208:A2 *153:8 2.82894e-06
7 *150:8 *235:46 0
8 *1187:A2 *150:8 7.29199e-05
9 *1207:A1 *150:8 0.00239341
10 *1217:A1 *1208:A2 0.000131718
11 *1217:A1 *150:8 9.11499e-05
12 *111:12 *1208:A2 1.41733e-05
13 *111:12 *150:8 1.19766e-05
*RES
1 *1207:ZN *150:8 16.592 
2 *150:8 *1217:A2 9 
3 *150:8 *1208:A2 10.56 
*END

*D_NET *151 0.00282572
*CONN
*I *1211:B I *D gf180mcu_fd_sc_mcu7t5v0__aoi21_1
*I *1238:A1 I *D gf180mcu_fd_sc_mcu7t5v0__and4_1
*I *1208:Z O *D gf180mcu_fd_sc_mcu7t5v0__and2_1
*CAP
1 *1211:B 0.000225415
2 *1238:A1 0.000211635
3 *1208:Z 0.000116331
4 *151:6 0.000553381
5 *1211:B *1210:A2 0.000292328
6 *1211:B *153:8 0.000435183
7 *1238:A1 *1148:I 0.00042386
8 *1238:A1 *281:102 0.000254197
9 *151:6 *1148:I 0.000173451
10 *151:6 *281:102 0.00010348
11 *1210:A1 *1211:B 3.646e-05
*RES
1 *1208:Z *151:6 5.852 
2 *151:6 *1238:A1 7.62 
3 *151:6 *1211:B 16.932 
*END

*D_NET *152 0.00659648
*CONN
*I *1278:B1 I *D gf180mcu_fd_sc_mcu7t5v0__oai22_1
*I *1211:A2 I *D gf180mcu_fd_sc_mcu7t5v0__aoi21_1
*I *1210:A2 I *D gf180mcu_fd_sc_mcu7t5v0__nand2_1
*I *1209:Z O *D gf180mcu_fd_sc_mcu7t5v0__xor2_1
*CAP
1 *1278:B1 0.000174064
2 *1211:A2 0
3 *1210:A2 9.0211e-05
4 *1209:Z 0.000213861
5 *152:12 0.000417946
6 *152:8 0.00071566
7 *1278:B1 *1272:A1 7.75983e-05
8 *1278:B1 *197:16 9.49752e-05
9 *1278:B1 *240:14 1.12327e-05
10 *1278:B1 *294:10 0.000105697
11 *152:8 *197:16 5.40546e-05
12 *152:8 *294:10 0.000146714
13 *152:12 *283:54 0
14 *1168:A2 *152:12 0.000450555
15 *1210:A1 *1210:A2 0.00052233
16 *1211:B *1210:A2 0.000292328
17 *1269:A1 *152:12 0.000298828
18 *109:8 *152:12 0.00105998
19 *109:10 *1210:A2 0.000199998
20 *109:10 *152:12 0.00167045
*RES
1 *1209:Z *152:8 6.372 
2 *152:8 *152:12 11.468 
3 *152:12 *1210:A2 10.768 
4 *152:12 *1211:A2 9 
5 *152:8 *1278:B1 6.268 
*END

*D_NET *153 0.00449161
*CONN
*I *1238:A2 I *D gf180mcu_fd_sc_mcu7t5v0__and4_1
*I *1217:A3 I *D gf180mcu_fd_sc_mcu7t5v0__nand3_1
*I *1210:ZN O *D gf180mcu_fd_sc_mcu7t5v0__nand2_1
*CAP
1 *1238:A2 0.000108461
2 *1217:A3 0.000211499
3 *1210:ZN 0.000295101
4 *153:8 0.000615061
5 *1217:A3 *168:27 0.000419265
6 *1238:A2 *1148:I 0.00129598
7 *1238:A2 *168:12 6.18411e-06
8 *1238:A2 *168:27 4.61933e-05
9 *1208:A1 *1217:A3 3.4596e-05
10 *1208:A2 *1217:A3 4.26239e-05
11 *1208:A2 *153:8 2.82894e-06
12 *1211:B *153:8 0.000435183
13 *1236:A1 *1217:A3 7.96024e-05
14 *1236:A1 *1238:A2 0.000899022
*RES
1 *1210:ZN *153:8 12.224 
2 *153:8 *1217:A3 11.08 
3 *153:8 *1238:A2 12.432 
*END

*D_NET *154 0.00155991
*CONN
*I *1216:A2 I *D gf180mcu_fd_sc_mcu7t5v0__nor2_1
*I *1213:A2 I *D gf180mcu_fd_sc_mcu7t5v0__nor2_1
*I *1215:A3 I *D gf180mcu_fd_sc_mcu7t5v0__nor3_1
*I *1212:ZN O *D gf180mcu_fd_sc_mcu7t5v0__nand3_1
*CAP
1 *1216:A2 0.00017981
2 *1213:A2 0
3 *1215:A3 0.000130257
4 *1212:ZN 0.00026567
5 *154:12 0.000130257
6 *154:10 0.00044548
7 *1215:A3 *1266:A2 2.3245e-05
8 *1215:A3 *1271:I 9.09749e-05
9 *1216:A2 *1215:A2 4.50277e-05
10 *1216:A2 *1408:I 7.45865e-05
11 *1216:A2 *261:8 2.78551e-05
12 *154:10 *1215:A2 8.82081e-06
13 *154:10 *1266:A2 0.000113027
14 *154:10 *244:78 1.85523e-05
15 *1212:A1 *154:10 6.35093e-06
*RES
1 *1212:ZN *154:10 10.872 
2 *154:10 *154:12 4.5 
3 *154:12 *1215:A3 5.54 
4 *154:12 *1213:A2 4.5 
5 *154:10 *1216:A2 10.352 
*END

*D_NET *155 0.0145101
*CONN
*I *1365:I I *D gf180mcu_fd_sc_mcu7t5v0__dlyb_1
*I *1366:I I *D gf180mcu_fd_sc_mcu7t5v0__dlyb_1
*I *1217:ZN O *D gf180mcu_fd_sc_mcu7t5v0__nand3_1
*CAP
1 *1365:I 0.00108863
2 *1366:I 0.00335891
3 *1217:ZN 0
4 *155:4 0.00444754
5 *1365:I *1233:A2 0.000196689
6 *1365:I *1235:A2 0.000219099
7 *1365:I *1236:A2 0.000209035
8 *1365:I *1342:CLK 0.00037733
9 *1365:I *168:27 0.000172496
10 *1365:I *236:40 0
11 *1365:I *241:39 0
12 *1365:I *242:26 0.00026211
13 *1366:I *1240:A2 0.00039947
14 *1366:I *168:27 0.000499545
15 *1366:I *226:12 0
16 *1366:I *241:39 0.000125164
17 *1366:I *254:12 0.000115721
18 *1170:A1 *1366:I 0.000103788
19 *1186:A1 *1366:I 7.16472e-05
20 *1187:A2 *1366:I 0.000406983
21 *1187:A3 *1366:I 0.000256274
22 *1187:A4 *1366:I 0.000250694
23 *1200:A4 *1366:I 5.78216e-06
24 *1207:A1 *1366:I 9.35542e-06
25 *1236:A1 *1365:I 0.000500761
26 *1344:D *1365:I 0.000593816
27 *1357:I *1366:I 3.50991e-05
28 *26:10 *1366:I 0.000804148
*RES
1 *1217:ZN *155:4 4.5 
2 *155:4 *1366:I 43.348 
3 *155:4 *1365:I 16.668 
*END

*D_NET *156 0.000420714
*CONN
*I *1220:A2 I *D gf180mcu_fd_sc_mcu7t5v0__nor2_1
*I *1219:Z O *D gf180mcu_fd_sc_mcu7t5v0__xor2_1
*CAP
1 *1220:A2 0.000210357
2 *1219:Z 0.000210357
3 *1220:A2 *1164:A2 0
*RES
1 *1219:Z *1220:A2 10.456 
*END

*D_NET *157 0.00261051
*CONN
*I *1225:A2 I *D gf180mcu_fd_sc_mcu7t5v0__nor2_1
*I *1223:A2 I *D gf180mcu_fd_sc_mcu7t5v0__nor3_1
*I *1221:Z O *D gf180mcu_fd_sc_mcu7t5v0__and3_1
*CAP
1 *1225:A2 2.5e-07
2 *1223:A2 0
3 *1221:Z 4.4867e-05
4 *157:8 4.5117e-05
5 *1225:A2 *232:10 0.000668179
6 *1225:A2 *276:28 0.000501134
7 *1225:A2 *276:32 0.000208806
8 *157:8 *232:10 0.000576953
9 *157:8 *276:32 0.000565206
*RES
1 *1221:Z *157:8 10.56 
2 *157:8 *1223:A2 9 
3 *157:8 *1225:A2 10.768 
*END

*D_NET *158 0.00115891
*CONN
*I *1223:A3 I *D gf180mcu_fd_sc_mcu7t5v0__nor3_1
*I *1222:ZN O *D gf180mcu_fd_sc_mcu7t5v0__aoi21_1
*CAP
1 *1223:A3 0.00053732
2 *1222:ZN 0.00053732
3 *1223:A3 *1221:A2 1.70427e-05
4 *1223:A3 *276:32 6.72269e-05
*RES
1 *1222:ZN *1223:A3 21.12 
*END

*D_NET *159 0.00953529
*CONN
*I *1227:A2 I *D gf180mcu_fd_sc_mcu7t5v0__xor2_1
*I *1237:A3 I *D gf180mcu_fd_sc_mcu7t5v0__nand4_1
*I *1230:A1 I *D gf180mcu_fd_sc_mcu7t5v0__and2_1
*I *1231:A2 I *D gf180mcu_fd_sc_mcu7t5v0__aoi21_1
*I *1226:A2 I *D gf180mcu_fd_sc_mcu7t5v0__nor3_1
*I *1224:Z O *D gf180mcu_fd_sc_mcu7t5v0__and4_1
*CAP
1 *1227:A2 0
2 *1237:A3 0.000182811
3 *1230:A1 0
4 *1231:A2 0.000150471
5 *1226:A2 8.72632e-05
6 *1224:Z 9.96403e-05
7 *159:38 0.000382842
8 *159:27 0.00151895
9 *159:14 0.00175592
10 *159:8 0.000599849
11 *1226:A2 *1224:A4 0
12 *1226:A2 *1228:A1 0.00120838
13 *1226:A2 *1341:CLK 0.000979229
14 *1231:A2 *1172:A2 0.000729923
15 *1231:A2 *1232:A2 4.1678e-05
16 *1237:A3 *1172:A2 0.000401308
17 *1237:A3 *237:22 4.07478e-05
18 *1237:A3 *276:84 0
19 *159:8 *1224:A4 5.13977e-05
20 *159:8 *231:44 0
21 *159:14 *1188:A2 0
22 *159:14 *1224:A4 0.000344971
23 *159:14 *1228:A1 0
24 *159:14 *1228:A2 2.58746e-05
25 *159:14 *231:44 0
26 *159:27 *1188:A2 0
27 *159:27 *249:20 0
28 *159:38 *1172:A2 0.000895461
29 *159:38 *1232:A2 1.19495e-05
30 *159:38 *163:6 2.66236e-05
31 *159:38 *276:84 0
*RES
1 *1224:Z *159:8 5.54 
2 *159:8 *159:14 8.452 
3 *159:14 *1226:A2 12.224 
4 *159:14 *159:27 11.676 
5 *159:27 *1231:A2 6.476 
6 *159:27 *159:38 2.704 
7 *159:38 *1230:A1 4.5 
8 *159:38 *1237:A3 6.372 
9 *159:8 *1227:A2 4.5 
*END

*D_NET *160 0.000392665
*CONN
*I *1226:A3 I *D gf180mcu_fd_sc_mcu7t5v0__nor3_1
*I *1225:ZN O *D gf180mcu_fd_sc_mcu7t5v0__nor2_1
*CAP
1 *1226:A3 0.000133845
2 *1225:ZN 0.000133845
3 *1226:A3 *1224:A4 0.000113016
4 *1226:A3 *1341:CLK 1.19584e-05
*RES
1 *1225:ZN *1226:A3 10.248 
*END

*D_NET *161 0.000667027
*CONN
*I *1228:A2 I *D gf180mcu_fd_sc_mcu7t5v0__nor2_1
*I *1227:Z O *D gf180mcu_fd_sc_mcu7t5v0__xor2_1
*CAP
1 *1228:A2 0.000311116
2 *1227:Z 0.000311116
3 *1228:A2 *1188:A2 1.78817e-06
4 *1228:A2 *1228:A1 1.71326e-05
5 *1228:A2 *1341:CLK 0
6 *159:14 *1228:A2 2.58746e-05
*RES
1 *1227:Z *1228:A2 11.08 
*END

*D_NET *162 0.00131022
*CONN
*I *1237:A4 I *D gf180mcu_fd_sc_mcu7t5v0__nand4_1
*I *1230:A2 I *D gf180mcu_fd_sc_mcu7t5v0__and2_1
*I *1229:Z O *D gf180mcu_fd_sc_mcu7t5v0__and2_1
*CAP
1 *1237:A4 0.000117763
2 *1230:A2 0.000225253
3 *1229:Z 0
4 *162:4 0.000343016
5 *1237:A4 *1172:A1 0
6 *1237:A4 *1172:A2 0.000195699
7 *1237:A4 *249:20 0.000428493
*RES
1 *1229:Z *162:4 4.5 
2 *162:4 *1230:A2 14.644 
3 *162:4 *1237:A4 6.164 
*END

*D_NET *163 0.00373263
*CONN
*I *1233:A2 I *D gf180mcu_fd_sc_mcu7t5v0__nand2_1
*I *1234:A2 I *D gf180mcu_fd_sc_mcu7t5v0__xnor2_1
*I *1232:A2 I *D gf180mcu_fd_sc_mcu7t5v0__nor3_1
*I *1230:Z O *D gf180mcu_fd_sc_mcu7t5v0__and2_1
*CAP
1 *1233:A2 0.000327474
2 *1234:A2 0.000653657
3 *1232:A2 0.000547396
4 *1230:Z 0.000140675
5 *163:6 0.00101425
6 *1232:A2 *1232:A3 0
7 *1232:A2 *235:25 0
8 *1232:A2 *276:24 0.000103933
9 *1232:A2 *276:84 0.000242965
10 *1233:A2 *236:21 0.000183471
11 *1234:A2 *236:12 0.000125283
12 *163:6 *276:84 0.000116578
13 *1231:A2 *1232:A2 4.1678e-05
14 *1365:I *1233:A2 0.000196689
15 *159:38 *1232:A2 1.19495e-05
16 *159:38 *163:6 2.66236e-05
*RES
1 *1230:Z *163:6 5.852 
2 *163:6 *1232:A2 9.284 
3 *163:6 *1234:A2 16.308 
4 *1234:A2 *1233:A2 12.224 
*END

*D_NET *164 0.000710753
*CONN
*I *1232:A3 I *D gf180mcu_fd_sc_mcu7t5v0__nor3_1
*I *1231:ZN O *D gf180mcu_fd_sc_mcu7t5v0__aoi21_1
*CAP
1 *1232:A3 0.000180283
2 *1231:ZN 0.000180283
3 *1232:A3 *1172:A2 0.000265539
4 *1232:A3 *235:6 4.39003e-05
5 *1232:A3 *235:25 4.07478e-05
6 *1232:A3 *276:24 0
7 *1232:A2 *1232:A3 0
*RES
1 *1231:ZN *1232:A3 10.664 
*END

*D_NET *165 0.000686664
*CONN
*I *1236:A2 I *D gf180mcu_fd_sc_mcu7t5v0__nand2_1
*I *1233:ZN O *D gf180mcu_fd_sc_mcu7t5v0__nand2_1
*CAP
1 *1236:A2 0.00021844
2 *1233:ZN 0.00021844
3 *1236:A2 *236:40 0
4 *1236:A1 *1236:A2 4.07478e-05
5 *1365:I *1236:A2 0.000209035
*RES
1 *1233:ZN *1236:A2 10.56 
*END

*D_NET *166 0.00104127
*CONN
*I *1235:A2 I *D gf180mcu_fd_sc_mcu7t5v0__nor2_1
*I *1234:ZN O *D gf180mcu_fd_sc_mcu7t5v0__xnor2_1
*CAP
1 *1235:A2 0.000190654
2 *1234:ZN 0.000190654
3 *1235:A2 *1343:CLK 1.23682e-05
4 *1343:D *1235:A2 0.000428493
5 *1365:I *1235:A2 0.000219099
*RES
1 *1234:ZN *1235:A2 11.392 
*END

*D_NET *167 0.000426156
*CONN
*I *1238:A3 I *D gf180mcu_fd_sc_mcu7t5v0__and4_1
*I *1236:ZN O *D gf180mcu_fd_sc_mcu7t5v0__nand2_1
*CAP
1 *1238:A3 0.000172085
2 *1236:ZN 0.000172085
3 *1238:A3 *168:12 2.92312e-05
4 *1238:A3 *237:14 1.92034e-05
5 *1236:A1 *1238:A3 3.35514e-05
*RES
1 *1236:ZN *1238:A3 19.352 
*END

*D_NET *168 0.0208683
*CONN
*I *1240:A2 I *D gf180mcu_fd_sc_mcu7t5v0__xor2_1
*I *1251:A1 I *D gf180mcu_fd_sc_mcu7t5v0__nor2_1
*I *1257:A1 I *D gf180mcu_fd_sc_mcu7t5v0__nor3_1
*I *1247:A1 I *D gf180mcu_fd_sc_mcu7t5v0__nor2_1
*I *1239:A2 I *D gf180mcu_fd_sc_mcu7t5v0__nor2_1
*I *1243:A3 I *D gf180mcu_fd_sc_mcu7t5v0__nor3_1
*I *1238:A4 I *D gf180mcu_fd_sc_mcu7t5v0__and4_1
*I *1237:ZN O *D gf180mcu_fd_sc_mcu7t5v0__nand4_1
*CAP
1 *1240:A2 0.000527629
2 *1251:A1 0.000292396
3 *1257:A1 8.52333e-05
4 *1247:A1 0
5 *1239:A2 0
6 *1243:A3 0
7 *1238:A4 0
8 *1237:ZN 0.000526814
9 *168:66 0.000898223
10 *168:55 0.00101221
11 *168:42 0.000734946
12 *168:35 0.000840203
13 *168:27 0.00251886
14 *168:12 0.00192117
15 *1240:A2 *1170:A2 0.000105621
16 *1240:A2 *254:12 0.000913064
17 *1251:A1 *1251:A2 2.96449e-05
18 *1251:A1 *1256:A1 4.84242e-05
19 *1251:A1 *1257:A3 0.000397744
20 *1251:A1 *182:12 0
21 *1251:A1 *226:22 5.63051e-05
22 *1251:A1 *226:30 0.000488606
23 *1251:A1 *227:6 1.60428e-05
24 *1257:A1 *1257:A2 8.23267e-05
25 *1257:A1 *225:24 1.28023e-05
26 *168:12 *1148:I 1.39636e-05
27 *168:12 *1233:A1 0.000450565
28 *168:12 *1237:A1 0.000689375
29 *168:12 *236:23 0.000274703
30 *168:12 *237:14 0.000183477
31 *168:12 *242:26 0.000406983
32 *168:27 *1170:A2 0.000800476
33 *168:27 *1185:A1 1.23682e-05
34 *168:27 *1195:A2 0.000269899
35 *168:27 *242:26 0.000447709
36 *168:27 *254:12 2.46831e-05
37 *168:35 *239:10 0.00171952
38 *168:35 *239:12 0.000673196
39 *168:42 *1363:I 2.39156e-06
40 *168:42 *243:71 2.21714e-05
41 *168:55 *1242:A2 6.18411e-06
42 *168:55 *1245:A2 0
43 *168:55 *243:71 0
44 *168:66 *1245:A2 0
45 *168:66 *1246:A2 9.74225e-05
46 *168:66 *1257:A2 0.000143493
47 *168:66 *225:16 1.61811e-05
48 *168:66 *225:18 1.49954e-05
49 *168:66 *225:24 6.40114e-06
50 *168:66 *243:71 0
51 *1170:A1 *168:27 1.40331e-05
52 *1185:A2 *168:27 0.000335858
53 *1186:A2 *168:27 5.13977e-05
54 *1187:A4 *168:27 0.000231494
55 *1198:B2 *168:35 1.65112e-05
56 *1198:B2 *168:42 9.35542e-06
57 *1200:A4 *168:27 0.000419276
58 *1208:A1 *168:27 5.57504e-05
59 *1217:A3 *168:27 0.000419265
60 *1236:A1 *168:12 0
61 *1236:A1 *168:27 0.000150795
62 *1238:A2 *168:12 6.18411e-06
63 *1238:A2 *168:27 4.61933e-05
64 *1238:A3 *168:12 2.92312e-05
65 *1239:A1 *168:42 0.000114515
66 *1243:A1 *168:42 3.22108e-05
67 *1365:I *168:27 0.000172496
68 *1366:I *1240:A2 0.00039947
69 *1366:I *168:27 0.000499545
70 *130:8 *168:27 8.02494e-05
*RES
1 *1237:ZN *168:12 19.324 
2 *168:12 *1238:A4 4.5 
3 *168:12 *168:27 16.744 
4 *168:27 *168:35 15.656 
5 *168:35 *1243:A3 4.5 
6 *168:35 *168:42 1.768 
7 *168:42 *1239:A2 4.5 
8 *168:42 *168:55 3.744 
9 *168:55 *1247:A1 4.5 
10 *168:55 *168:66 9.076 
11 *168:66 *1257:A1 9.936 
12 *168:66 *1251:A1 12.016 
13 *168:27 *1240:A2 11.676 
*END

*D_NET *169 0.000170461
*CONN
*I *1242:A2 I *D gf180mcu_fd_sc_mcu7t5v0__nor2_1
*I *1239:ZN O *D gf180mcu_fd_sc_mcu7t5v0__nor2_1
*CAP
1 *1242:A2 8.21384e-05
2 *1239:ZN 8.21384e-05
3 *1243:A1 *1242:A2 0
4 *168:55 *1242:A2 6.18411e-06
*RES
1 *1239:ZN *1242:A2 9.728 
*END

*D_NET *170 0.000699651
*CONN
*I *1241:A2 I *D gf180mcu_fd_sc_mcu7t5v0__nor2_1
*I *1240:Z O *D gf180mcu_fd_sc_mcu7t5v0__xor2_1
*CAP
1 *1241:A2 9.84397e-05
2 *1240:Z 9.84397e-05
3 *1241:A2 *1345:CLK 0.000159517
4 *1241:A2 *254:12 5.47431e-06
5 *1345:D *1241:A2 0.00033778
*RES
1 *1240:Z *1241:A2 10.456 
*END

*D_NET *171 0.000309789
*CONN
*I *1244:A2 I *D gf180mcu_fd_sc_mcu7t5v0__nor3_1
*I *1242:ZN O *D gf180mcu_fd_sc_mcu7t5v0__nor2_1
*CAP
1 *1244:A2 0.000137811
2 *1242:ZN 0.000137811
3 *1244:A2 *172:14 3.41668e-05
4 *1244:A2 *243:56 0
*RES
1 *1242:ZN *1244:A2 19.144 
*END

*D_NET *172 0.00240261
*CONN
*I *1245:A2 I *D gf180mcu_fd_sc_mcu7t5v0__nor2_1
*I *1244:A3 I *D gf180mcu_fd_sc_mcu7t5v0__nor3_1
*I *1243:ZN O *D gf180mcu_fd_sc_mcu7t5v0__nor3_1
*CAP
1 *1245:A2 0.000515041
2 *1244:A3 0
3 *1243:ZN 0.000332904
4 *172:14 0.000847945
5 *1245:A2 *175:8 0
6 *1245:A2 *276:84 4.30651e-05
7 *1245:A2 *276:93 0.000223155
8 *172:14 *1242:A1 5.06668e-05
9 *172:14 *243:56 0.000198334
10 *172:14 *276:84 7.77726e-05
11 *1239:A1 *172:14 6.88177e-05
12 *1243:A1 *172:14 1.07369e-05
13 *1244:A2 *172:14 3.41668e-05
14 *168:55 *1245:A2 0
15 *168:66 *1245:A2 0
*RES
1 *1243:ZN *172:14 16.724 
2 *172:14 *1244:A3 4.5 
3 *172:14 *1245:A2 8.556 
*END

*D_NET *173 0.000447013
*CONN
*I *1248:A2 I *D gf180mcu_fd_sc_mcu7t5v0__nor3_1
*I *1245:ZN O *D gf180mcu_fd_sc_mcu7t5v0__nor2_1
*CAP
1 *1248:A2 0.000144252
2 *1245:ZN 0.000144252
3 *1248:A2 *225:10 0.000103933
4 *1248:A2 *276:93 5.45754e-05
*RES
1 *1245:ZN *1248:A2 10.456 
*END

*D_NET *174 0.00041678
*CONN
*I *1247:A2 I *D gf180mcu_fd_sc_mcu7t5v0__nor2_1
*I *1246:ZN O *D gf180mcu_fd_sc_mcu7t5v0__nand3_1
*CAP
1 *1247:A2 0.000120678
2 *1246:ZN 0.000120678
3 *1247:A2 *1246:A2 0.000103788
4 *1247:A2 *175:8 7.16355e-05
5 *1247:A2 *243:71 0
*RES
1 *1246:ZN *1247:A2 9.936 
*END

*D_NET *175 0.00256085
*CONN
*I *1248:A3 I *D gf180mcu_fd_sc_mcu7t5v0__nor3_1
*I *1249:A2 I *D gf180mcu_fd_sc_mcu7t5v0__nor2_1
*I *1247:ZN O *D gf180mcu_fd_sc_mcu7t5v0__nor2_1
*CAP
1 *1248:A3 0.000151188
2 *1249:A2 0.000417807
3 *1247:ZN 0.000411335
4 *175:8 0.00098033
5 *1248:A3 *1348:RN 0
6 *1248:A3 *284:67 0
7 *1249:A2 *1348:RN 0
8 *1249:A2 *225:10 0
9 *1249:A2 *226:22 0.000345736
10 *1249:A2 *238:35 0
11 *1249:A2 *284:67 0
12 *175:8 *1246:A2 5.35362e-06
13 *175:8 *225:10 0.000109467
14 *175:8 *225:16 3.57634e-06
15 *175:8 *226:22 0
16 *175:8 *238:20 3.22108e-05
17 *175:8 *238:35 3.22108e-05
18 *1245:A2 *175:8 0
19 *1247:A2 *175:8 7.16355e-05
*RES
1 *1247:ZN *175:8 12.016 
2 *175:8 *1249:A2 12.536 
3 *175:8 *1248:A3 10.144 
*END

*D_NET *176 0.000927182
*CONN
*I *1252:A2 I *D gf180mcu_fd_sc_mcu7t5v0__nor3_1
*I *1249:ZN O *D gf180mcu_fd_sc_mcu7t5v0__nor2_1
*CAP
1 *1252:A2 0.000361031
2 *1249:ZN 0.000361031
3 *1252:A2 *277:8 5.13239e-06
4 *1252:A2 *277:18 0.000199988
*RES
1 *1249:ZN *1252:A2 20.496 
*END

*D_NET *177 0.00182758
*CONN
*I *1251:A2 I *D gf180mcu_fd_sc_mcu7t5v0__nor2_1
*I *1257:A2 I *D gf180mcu_fd_sc_mcu7t5v0__nor3_1
*I *1250:ZN O *D gf180mcu_fd_sc_mcu7t5v0__nand4_1
*CAP
1 *1251:A2 0.000211377
2 *1257:A2 0.000212568
3 *1250:ZN 0
4 *177:4 0.000423945
5 *1251:A2 *1250:A2 5.34458e-06
6 *1251:A2 *1250:A3 0.000103788
7 *1251:A2 *226:22 0.000320012
8 *1251:A2 *226:30 0.000111743
9 *1251:A2 *238:35 1.01781e-05
10 *1251:A2 *238:37 3.57634e-06
11 *1251:A2 *239:33 7.87395e-06
12 *1257:A2 *225:24 7.98419e-05
13 *1257:A2 *226:30 4.91818e-05
14 *1257:A2 *239:33 3.26853e-05
15 *1251:A1 *1251:A2 2.96449e-05
16 *1257:A1 *1257:A2 8.23267e-05
17 *168:66 *1257:A2 0.000143493
*RES
1 *1250:ZN *177:4 4.5 
2 *177:4 *1257:A2 15.58 
3 *177:4 *1251:A2 6.58 
*END

*D_NET *178 0.00431457
*CONN
*I *1252:A3 I *D gf180mcu_fd_sc_mcu7t5v0__nor3_1
*I *1253:A2 I *D gf180mcu_fd_sc_mcu7t5v0__xnor2_1
*I *1255:A2 I *D gf180mcu_fd_sc_mcu7t5v0__aoi21_1
*I *1251:ZN O *D gf180mcu_fd_sc_mcu7t5v0__nor2_1
*CAP
1 *1252:A3 0.000346614
2 *1253:A2 0.000279162
3 *1255:A2 0.000182552
4 *1251:ZN 0
5 *178:8 0.000784223
6 *178:4 0.000669124
7 *1252:A3 *227:6 0.000149455
8 *1252:A3 *277:18 1.60428e-05
9 *1253:A2 *1253:A1 0.000948492
10 *1253:A2 *1254:A1 4.4504e-06
11 *1255:A2 *182:12 5.34923e-05
12 *1255:A2 *227:21 2.80993e-05
13 *1255:A2 *284:75 0
14 *178:8 *182:12 0.000403019
15 *178:8 *227:21 0.000449844
16 *178:8 *284:67 0
*RES
1 *1251:ZN *178:4 4.5 
2 *178:4 *178:8 9.596 
3 *178:8 *1255:A2 10.248 
4 *178:8 *1253:A2 11.808 
5 *178:4 *1252:A3 7.1 
*END

*D_NET *179 0.000858601
*CONN
*I *1254:A2 I *D gf180mcu_fd_sc_mcu7t5v0__nor2_1
*I *1253:ZN O *D gf180mcu_fd_sc_mcu7t5v0__xnor2_1
*CAP
1 *1254:A2 0.000263926
2 *1253:ZN 0.000263926
3 *1254:A2 *1254:A1 0.000308285
4 *1349:D *1254:A2 2.24654e-05
*RES
1 *1253:ZN *1254:A2 11.392 
*END

*D_NET *180 0.000686557
*CONN
*I *1258:A2 I *D gf180mcu_fd_sc_mcu7t5v0__nor3_1
*I *1255:ZN O *D gf180mcu_fd_sc_mcu7t5v0__aoi21_1
*CAP
1 *1258:A2 0.000253655
2 *1255:ZN 0.000253655
3 *1258:A2 *1253:A1 0.000130077
4 *1350:D *1258:A2 4.91701e-05
*RES
1 *1255:ZN *1258:A2 10.976 
*END

*D_NET *181 0.000666938
*CONN
*I *1257:A3 I *D gf180mcu_fd_sc_mcu7t5v0__nor3_1
*I *1256:ZN O *D gf180mcu_fd_sc_mcu7t5v0__nand2_1
*CAP
1 *1257:A3 0.0001134
2 *1256:ZN 0.0001134
3 *1257:A3 *1256:A2 3.3221e-05
4 *1257:A3 *182:12 9.17314e-06
5 *1251:A1 *1257:A3 0.000397744
*RES
1 *1256:ZN *1257:A3 10.144 
*END

*D_NET *182 0.0069521
*CONN
*I *1258:A3 I *D gf180mcu_fd_sc_mcu7t5v0__nor3_1
*I *1259:A2 I *D gf180mcu_fd_sc_mcu7t5v0__nor2_1
*I *1260:A2 I *D gf180mcu_fd_sc_mcu7t5v0__and2_1
*I *1257:ZN O *D gf180mcu_fd_sc_mcu7t5v0__nor3_1
*CAP
1 *1258:A3 0
2 *1259:A2 0.000207618
3 *1260:A2 0.000209458
4 *1257:ZN 0.0010689
5 *182:14 0.000945254
6 *182:12 0.00159708
7 *1259:A2 *1259:A1 0.000193782
8 *1259:A2 *1263:C 1.23682e-05
9 *1259:A2 *229:12 3.22108e-05
10 *1260:A2 *1261:A3 0.000265501
11 *1260:A2 *1262:A2 4.07478e-05
12 *1260:A2 *1263:C 0.000256274
13 *1260:A2 *229:10 0.00019118
14 *1260:A2 *277:20 0
15 *182:12 *1256:A1 6.34305e-05
16 *182:12 *1256:A2 5.70866e-05
17 *182:12 *1349:RN 8.08804e-05
18 *182:12 *227:6 8.89695e-05
19 *182:12 *277:18 0
20 *182:12 *284:75 0
21 *182:14 *229:10 0.00117567
22 *182:14 *277:18 0
23 *182:14 *277:20 0
24 *182:14 *284:75 0
25 *1251:A1 *182:12 0
26 *1255:A2 *182:12 5.34923e-05
27 *1257:A3 *182:12 9.17314e-06
28 *178:8 *182:12 0.000403019
*RES
1 *1257:ZN *182:12 17.84 
2 *182:12 *182:14 4.472 
3 *182:14 *1260:A2 11.08 
4 *182:14 *1259:A2 10.768 
5 *182:12 *1258:A3 9 
*END

*D_NET *183 0.000619938
*CONN
*I *1261:A2 I *D gf180mcu_fd_sc_mcu7t5v0__nor3_1
*I *1259:ZN O *D gf180mcu_fd_sc_mcu7t5v0__nor2_1
*CAP
1 *1261:A2 7.40883e-05
2 *1259:ZN 7.40883e-05
3 *1261:A2 *1261:A1 0.000271764
4 *1261:A2 *277:20 0.000199998
*RES
1 *1259:ZN *1261:A2 19.144 
*END

*D_NET *184 0.00276664
*CONN
*I *1261:A3 I *D gf180mcu_fd_sc_mcu7t5v0__nor3_1
*I *1262:A2 I *D gf180mcu_fd_sc_mcu7t5v0__nor2_1
*I *1263:A2 I *D gf180mcu_fd_sc_mcu7t5v0__aoi211_1
*I *1260:Z O *D gf180mcu_fd_sc_mcu7t5v0__and2_1
*CAP
1 *1261:A3 0.000217868
2 *1262:A2 8.99847e-05
3 *1263:A2 0.000386289
4 *1260:Z 0
5 *184:15 0.000362402
6 *184:4 0.000440838
7 *1261:A3 *1263:C 0.000279433
8 *1261:A3 *1351:CLK 0
9 *1262:A2 *1263:C 0.000254761
10 *1263:A2 *1262:A1 0.000127799
11 *1263:A2 *1263:C 0
12 *1263:A2 *1351:CLK 0.000127173
13 *1263:A2 *1352:CLK 9.56679e-05
14 *1263:A2 *230:12 1.12327e-05
15 *1260:A2 *1261:A3 0.000265501
16 *1260:A2 *1262:A2 4.07478e-05
17 *1351:D *1261:A3 6.69436e-05
*RES
1 *1260:Z *184:4 4.5 
2 *184:4 *1263:A2 8.66 
3 *184:4 *184:15 0.52 
4 *184:15 *1262:A2 6.58 
5 *184:15 *1261:A3 7.1 
*END

*D_NET *185 0.000532077
*CONN
*I *1263:B I *D gf180mcu_fd_sc_mcu7t5v0__aoi211_1
*I *1262:ZN O *D gf180mcu_fd_sc_mcu7t5v0__nor2_1
*CAP
1 *1263:B 5.18058e-05
2 *1262:ZN 5.18058e-05
3 *1263:B *1262:A1 0.000346997
4 *1263:B *1263:C 8.14679e-05
*RES
1 *1262:ZN *1263:B 9.936 
*END

*D_NET *186 0.00423173
*CONN
*I *1320:A1 I *D gf180mcu_fd_sc_mcu7t5v0__oai21_1
*I *1269:A2 I *D gf180mcu_fd_sc_mcu7t5v0__nor3_1
*I *1267:Z O *D gf180mcu_fd_sc_mcu7t5v0__xor2_1
*CAP
1 *1320:A1 5.62657e-05
2 *1269:A2 0.000479459
3 *1267:Z 0.000170803
4 *186:10 0.000706527
5 *1269:A2 *1266:A2 5.43095e-05
6 *1269:A2 *1269:A3 0.000337769
7 *1269:A2 *1319:A3 0.000517329
8 *1269:A2 *1320:B 0.000194511
9 *1320:A1 *253:12 0.000355286
10 *1320:A1 *295:12 0
11 *186:10 *244:67 0.000199988
12 *186:10 *244:107 0.000114409
13 *186:10 *253:12 0.000501776
14 *186:10 *295:12 0
15 *186:10 *295:23 0.000124022
16 *1356:D *1269:A2 0.000419276
*RES
1 *1267:Z *186:10 11.288 
2 *186:10 *1269:A2 14.408 
3 *186:10 *1320:A1 9.936 
*END

*D_NET *187 0.00134483
*CONN
*I *1269:A3 I *D gf180mcu_fd_sc_mcu7t5v0__nor3_1
*I *1268:ZN O *D gf180mcu_fd_sc_mcu7t5v0__nand2_1
*CAP
1 *1269:A3 0.000241634
2 *1268:ZN 0.000241634
3 *1269:A3 *1266:A2 0.00012524
4 *1269:A3 *244:78 2.38773e-05
5 *1266:A1 *1269:A3 0.000220531
6 *1268:A1 *1269:A3 0.000122244
7 *1269:A1 *1269:A3 3.19001e-05
8 *1269:A2 *1269:A3 0.000337769
*RES
1 *1268:ZN *1269:A3 20.808 
*END

*D_NET *188 0.000737506
*CONN
*I *1270:A2 I *D gf180mcu_fd_sc_mcu7t5v0__oai21_1
*I *1269:ZN O *D gf180mcu_fd_sc_mcu7t5v0__nor3_1
*CAP
1 *1270:A2 0.000248135
2 *1269:ZN 0.000248135
3 *1270:A2 *1266:A2 0.000125251
4 *1270:A2 *1271:I 1.12327e-05
5 *1270:A2 *284:31 0
6 *1270:B *1270:A2 0.000104752
*RES
1 *1269:ZN *1270:A2 11.08 
*END

*D_NET *189 0.00248817
*CONN
*I *1271:I I *D gf180mcu_fd_sc_mcu7t5v0__clkinv_1
*I *1270:ZN O *D gf180mcu_fd_sc_mcu7t5v0__oai21_1
*CAP
1 *1271:I 0.000518661
2 *1270:ZN 0.000518661
3 *1271:I *1266:A2 0
4 *1271:I *1270:A1 0.000466783
5 *1271:I *1398:I 0.000151966
6 *1271:I *291:14 0.000122244
7 *1271:I *291:21 0.000607646
8 *1215:A3 *1271:I 9.09749e-05
9 *1270:A2 *1271:I 1.12327e-05
*RES
1 *1270:ZN *1271:I 14.824 
*END

*D_NET *190 0.00143002
*CONN
*I *1282:B I *D gf180mcu_fd_sc_mcu7t5v0__aoi21_1
*I *1272:ZN O *D gf180mcu_fd_sc_mcu7t5v0__nor2_1
*CAP
1 *1282:B 0.000240995
2 *1272:ZN 0.000240995
3 *1282:B *197:16 0
4 *1282:B *197:24 4.07478e-05
5 *42:61 *1282:B 3.10673e-05
6 *110:25 *1282:B 0.000876213
*RES
1 *1272:ZN *1282:B 11.6 
*END

*D_NET *191 0.00114159
*CONN
*I *1275:A2 I *D gf180mcu_fd_sc_mcu7t5v0__nand3_1
*I *1273:ZN O *D gf180mcu_fd_sc_mcu7t5v0__xnor2_1
*CAP
1 *1275:A2 0.000223771
2 *1273:ZN 0.000223771
3 *1275:A2 *1274:A2 0.000322679
4 *1275:A2 *1313:A2 7.4449e-05
5 *1275:A2 *193:10 0.000205771
6 *1275:A2 *282:23 0
7 *1275:A2 *292:41 9.11499e-05
*RES
1 *1273:ZN *1275:A2 20.392 
*END

*D_NET *192 0.000144384
*CONN
*I *1275:A3 I *D gf180mcu_fd_sc_mcu7t5v0__nand3_1
*I *1274:ZN O *D gf180mcu_fd_sc_mcu7t5v0__xnor2_1
*CAP
1 *1275:A3 4.0877e-05
2 *1274:ZN 4.0877e-05
3 *1275:A3 *1313:A2 6.26303e-05
*RES
1 *1274:ZN *1275:A3 9.52 
*END

*D_NET *193 0.00439001
*CONN
*I *1277:A1 I *D gf180mcu_fd_sc_mcu7t5v0__and2_1
*I *1313:A1 I *D gf180mcu_fd_sc_mcu7t5v0__aoi21_1
*I *1275:ZN O *D gf180mcu_fd_sc_mcu7t5v0__nand3_1
*CAP
1 *1277:A1 0.000739617
2 *1313:A1 0.000256767
3 *1275:ZN 0.000290592
4 *193:10 0.00128698
5 *1277:A1 *1273:A1 0.000419265
6 *1277:A1 *1274:A2 1.15684e-05
7 *1277:A1 *1370:I 1.60338e-05
8 *1313:A1 *1273:A1 7.18755e-06
9 *1313:A1 *1274:A1 8.54959e-05
10 *1313:A1 *1274:A2 0.000194522
11 *1313:A1 *1313:A2 0.000275198
12 *1313:A1 *245:6 0.000103933
13 *193:10 *1274:A2 8.35178e-06
14 *193:10 *1313:A2 3.95922e-05
15 *193:10 *282:59 0
16 *1273:A2 *193:10 1.42358e-05
17 *1275:A1 *193:10 5.61634e-05
18 *1275:A2 *193:10 0.000205771
19 *1296:A1 *1277:A1 0.00036751
20 *65:12 *193:10 1.12327e-05
*RES
1 *1275:ZN *193:10 11.288 
2 *193:10 *1313:A1 12.224 
3 *193:10 *1277:A1 15.448 
*END

*D_NET *194 0.00619551
*CONN
*I *1277:A2 I *D gf180mcu_fd_sc_mcu7t5v0__and2_1
*I *1290:A2 I *D gf180mcu_fd_sc_mcu7t5v0__nand2_1
*I *1280:A2 I *D gf180mcu_fd_sc_mcu7t5v0__nand2_1
*I *1276:ZN O *D gf180mcu_fd_sc_mcu7t5v0__nor3_1
*CAP
1 *1277:A2 0.00037086
2 *1290:A2 0
3 *1280:A2 0.00035635
4 *1276:ZN 0.000134847
5 *194:19 0.00148999
6 *194:10 0.00161032
7 *1277:A2 *1279:A1 7.86587e-06
8 *1277:A2 *205:10 7.53493e-05
9 *1280:A2 *262:14 0.000205524
10 *194:19 *1141:I 9.48851e-05
11 *194:19 *1165:A2 4.7868e-06
12 *194:19 *1166:A2 0
13 *194:19 *1278:A1 0.000415607
14 *194:19 *197:16 0
15 *194:19 *205:10 1.12327e-05
16 *194:19 *262:14 0.000222222
17 *1159:A2 *194:19 0
18 *1165:A1 *1277:A2 0.000885821
19 *1165:A1 *194:19 2.36218e-05
20 *1209:A1 *194:19 0.000212437
21 *1278:A2 *194:19 2.02353e-05
22 *1296:A1 *1277:A2 3.17907e-05
23 *41:12 *1280:A2 0
24 *41:12 *194:19 0
25 *41:16 *194:10 2.17601e-05
26 *41:55 *194:10 0
*RES
1 *1276:ZN *194:10 14.436 
2 *194:10 *1280:A2 7.1 
3 *194:10 *194:19 9.256 
4 *194:19 *1290:A2 4.5 
5 *194:19 *1277:A2 8.66 
*END

*D_NET *195 0.00188817
*CONN
*I *1279:A1 I *D gf180mcu_fd_sc_mcu7t5v0__nor2_1
*I *1310:A2 I *D gf180mcu_fd_sc_mcu7t5v0__and2_1
*I *1277:Z O *D gf180mcu_fd_sc_mcu7t5v0__and2_1
*CAP
1 *1279:A1 0.000255137
2 *1310:A2 6.35402e-05
3 *1277:Z 2.33947e-05
4 *195:8 0.000342072
5 *1279:A1 *1310:A1 0.00043772
6 *1310:A2 *1311:I1 0.000355286
7 *1310:A2 *253:12 5.35151e-05
8 *195:8 *1311:I1 0.000199998
9 *195:8 *253:12 2.68412e-05
10 *1165:A1 *1279:A1 0.000122801
11 *1277:A2 *1279:A1 7.86587e-06
*RES
1 *1277:Z *195:8 9.52 
2 *195:8 *1310:A2 9.936 
3 *195:8 *1279:A1 12.016 
*END

*D_NET *196 0.000505117
*CONN
*I *1279:A2 I *D gf180mcu_fd_sc_mcu7t5v0__nor2_1
*I *1278:ZN O *D gf180mcu_fd_sc_mcu7t5v0__oai22_1
*CAP
1 *1279:A2 0.000164989
2 *1278:ZN 0.000164989
3 *1279:A2 *1165:A2 4.4504e-06
4 *1279:A2 *197:16 0.000145592
5 *1279:A2 *240:14 2.50972e-05
*RES
1 *1278:ZN *1279:A2 10.248 
*END

*D_NET *197 0.010899
*CONN
*I *1282:A1 I *D gf180mcu_fd_sc_mcu7t5v0__aoi21_1
*I *1289:A1 I *D gf180mcu_fd_sc_mcu7t5v0__aoi21_1
*I *1288:A2 I *D gf180mcu_fd_sc_mcu7t5v0__oai21_1
*I *1285:S I *D gf180mcu_fd_sc_mcu7t5v0__mux2_2
*I *1279:ZN O *D gf180mcu_fd_sc_mcu7t5v0__nor2_1
*CAP
1 *1282:A1 0
2 *1289:A1 0
3 *1288:A2 0.000147446
4 *1285:S 0.000138192
5 *1279:ZN 0.00145644
6 *197:39 0.00090951
7 *197:24 0.00118287
8 *197:16 0.00173905
9 *1285:S *1283:A2 7.99289e-05
10 *1285:S *1285:I1 0.000158231
11 *1288:A2 *1289:A2 1.12327e-05
12 *1288:A2 *1289:B 0.000253542
13 *1288:A2 *1323:CLK 0
14 *1288:A2 *244:80 0
15 *197:16 *1165:A2 0.000115234
16 *197:16 *1272:A1 3.62028e-05
17 *197:16 *1369:I 9.95141e-05
18 *197:16 *240:14 0
19 *197:16 *294:10 5.87216e-05
20 *197:24 *1283:A2 0.000541196
21 *197:24 *1284:B 0
22 *197:24 *1285:I1 7.02352e-05
23 *197:39 *1280:A1 6.17457e-05
24 *197:39 *1281:A1 4.4808e-05
25 *197:39 *1283:A2 0.000107648
26 *197:39 *1284:B 0
27 *197:39 *1289:A2 0.000161497
28 *197:39 *258:8 4.17816e-05
29 *1159:A1 *197:16 1.60428e-05
30 *1159:A2 *197:16 7.90367e-05
31 *1209:A1 *197:16 3.49067e-05
32 *1209:A2 *197:16 0.00035533
33 *1278:B1 *197:16 9.49752e-05
34 *1279:A2 *197:16 0.000145592
35 *1282:B *197:16 0
36 *1282:B *197:24 4.07478e-05
37 *1285:I0 *1285:S 0.000134354
38 *1285:I0 *197:24 2.38773e-05
39 *1285:I0 *197:39 8.29965e-06
40 *1288:A1 *1288:A2 0.000404285
41 *41:12 *197:16 0.00127872
42 *42:14 *197:39 0.000106025
43 *42:61 *197:24 8.44956e-05
44 *43:14 *1288:A2 2.24654e-05
45 *43:14 *197:39 0.000150264
46 *110:10 *197:16 0.000450555
47 *110:25 *197:16 0
48 *152:8 *197:16 5.40546e-05
49 *194:19 *197:16 0
*RES
1 *1279:ZN *197:16 26.604 
2 *197:16 *197:24 3.328 
3 *197:24 *1285:S 6.268 
4 *197:24 *197:39 16.28 
5 *197:39 *1288:A2 6.58 
6 *197:39 *1289:A1 4.5 
7 *197:16 *1282:A1 4.5 
*END

*D_NET *198 0.00161653
*CONN
*I *1281:A2 I *D gf180mcu_fd_sc_mcu7t5v0__nand2_1
*I *1284:B I *D gf180mcu_fd_sc_mcu7t5v0__oai21_1
*I *1280:ZN O *D gf180mcu_fd_sc_mcu7t5v0__nand2_1
*CAP
1 *1281:A2 0
2 *1284:B 0.000233187
3 *1280:ZN 0.000109098
4 *198:6 0.000342285
5 *1284:B *1280:A1 7.50187e-06
6 *1284:B *1281:A1 0.000362202
7 *1284:B *1369:I 0.000302264
8 *1284:B *262:14 0
9 *1285:I0 *1284:B 0.000259996
10 *197:24 *1284:B 0
11 *197:39 *1284:B 0
*RES
1 *1280:ZN *198:6 5.436 
2 *198:6 *1284:B 16.412 
3 *198:6 *1281:A2 4.5 
*END

*D_NET *199 0.00012122
*CONN
*I *1282:A2 I *D gf180mcu_fd_sc_mcu7t5v0__aoi21_1
*I *1281:ZN O *D gf180mcu_fd_sc_mcu7t5v0__nand2_1
*CAP
1 *1282:A2 6.06099e-05
2 *1281:ZN 6.06099e-05
*RES
1 *1281:ZN *1282:A2 9.52 
*END

*D_NET *200 0.00329142
*CONN
*I *1283:A2 I *D gf180mcu_fd_sc_mcu7t5v0__nor2_1
*I *1282:ZN O *D gf180mcu_fd_sc_mcu7t5v0__aoi21_1
*CAP
1 *1283:A2 0.00100726
2 *1282:ZN 0.00100726
3 *1283:A2 *1281:A1 8.18386e-06
4 *1283:A2 *1369:I 0
5 *1285:I0 *1283:A2 0.000539953
6 *1285:S *1283:A2 7.99289e-05
7 *197:24 *1283:A2 0.000541196
8 *197:39 *1283:A2 0.000107648
*RES
1 *1282:ZN *1283:A2 27.36 
*END

*D_NET *201 0.000903971
*CONN
*I *1285:I1 I *D gf180mcu_fd_sc_mcu7t5v0__mux2_2
*I *1284:ZN O *D gf180mcu_fd_sc_mcu7t5v0__oai21_1
*CAP
1 *1285:I1 0.000337752
2 *1284:ZN 0.000337752
3 *1285:S *1285:I1 0.000158231
4 *197:24 *1285:I1 7.02352e-05
*RES
1 *1284:ZN *1285:I1 11.808 
*END

*D_NET *202 0.000519998
*CONN
*I *1286:A2 I *D gf180mcu_fd_sc_mcu7t5v0__and2_1
*I *1285:Z O *D gf180mcu_fd_sc_mcu7t5v0__mux2_2
*CAP
1 *1286:A2 0.000259999
2 *1285:Z 0.000259999
*RES
1 *1285:Z *1286:A2 10.664 
*END

*D_NET *203 0.000964147
*CONN
*I *1289:A2 I *D gf180mcu_fd_sc_mcu7t5v0__aoi21_1
*I *1287:ZN O *D gf180mcu_fd_sc_mcu7t5v0__oai211_1
*CAP
1 *1289:A2 0.000261332
2 *1287:ZN 0.000261332
3 *1289:A2 *244:80 0.000159554
4 *1288:A2 *1289:A2 1.12327e-05
5 *42:14 *1289:A2 0.000103788
6 *43:14 *1289:A2 5.41207e-06
7 *197:39 *1289:A2 0.000161497
*RES
1 *1287:ZN *1289:A2 11.6 
*END

*D_NET *204 0.0010321
*CONN
*I *1289:B I *D gf180mcu_fd_sc_mcu7t5v0__aoi21_1
*I *1288:ZN O *D gf180mcu_fd_sc_mcu7t5v0__oai21_1
*CAP
1 *1289:B 0.000241971
2 *1288:ZN 0.000241971
3 *1289:B *1323:CLK 0
4 *1288:A2 *1289:B 0.000253542
5 *42:14 *1289:B 0.000102412
6 *43:14 *1289:B 0.000192201
*RES
1 *1288:ZN *1289:B 11.496 
*END

*D_NET *205 0.0111244
*CONN
*I *1367:I I *D gf180mcu_fd_sc_mcu7t5v0__dlyb_1
*I *1368:I I *D gf180mcu_fd_sc_mcu7t5v0__dlyb_1
*I *1290:ZN O *D gf180mcu_fd_sc_mcu7t5v0__nand2_1
*CAP
1 *1367:I 0.000157484
2 *1368:I 0.00136008
3 *1290:ZN 0.000745238
4 *205:10 0.0022628
5 *1367:I *1311:I1 0
6 *1367:I *1370:I 0.000809422
7 *1367:I *278:12 9.52686e-05
8 *1368:I *1299:A2 8.94351e-05
9 *1368:I *1300:A1 0.000218453
10 *1368:I *1300:A2 5.63044e-06
11 *1368:I *1300:B 7.992e-05
12 *1368:I *1302:A2 0.000162673
13 *1368:I *1307:A3 3.65428e-05
14 *1368:I *1330:SETN 0
15 *1368:I *1332:CLK 0.000378731
16 *1368:I *278:70 0.000127293
17 *1368:I *295:23 0.00167144
18 *1368:I *295:30 0.00165913
19 *205:10 *1166:A2 0
20 *205:10 *1311:I1 0
21 *205:10 *1370:I 0.000835855
22 *205:10 *295:23 0
23 *1267:A1 *205:10 0
24 *1277:A2 *205:10 7.53493e-05
25 *1296:A1 *205:10 0.000318062
26 *84:26 *205:10 2.43345e-05
27 *194:19 *205:10 1.12327e-05
*RES
1 *1290:ZN *205:10 15.864 
2 *205:10 *1368:I 24.08 
3 *205:10 *1367:I 11.184 
*END

*D_NET *206 0.000557487
*CONN
*I *1296:B I *D gf180mcu_fd_sc_mcu7t5v0__oai31_1
*I *1295:ZN O *D gf180mcu_fd_sc_mcu7t5v0__oai21_1
*CAP
1 *1296:B 3.78283e-05
2 *1295:ZN 3.78283e-05
3 *1296:B *257:44 0.000346997
4 *1296:A1 *1296:B 0.000134833
*RES
1 *1295:ZN *1296:B 9.936 
*END

*D_NET *207 0.0017986
*CONN
*I *1297:I0 I *D gf180mcu_fd_sc_mcu7t5v0__mux2_2
*I *1296:ZN O *D gf180mcu_fd_sc_mcu7t5v0__oai31_1
*CAP
1 *1297:I0 0.00069685
2 *1296:ZN 0.00069685
3 *1297:I0 *1295:B 0.00015732
4 *1297:I0 *1296:A2 5.61634e-05
5 *1297:I0 *1297:S 0
6 *1297:I0 *282:72 0
7 *1297:I0 *284:67 0.000191415
*RES
1 *1296:ZN *1297:I0 24.24 
*END

*D_NET *208 0.000426568
*CONN
*I *1299:A2 I *D gf180mcu_fd_sc_mcu7t5v0__nor2_1
*I *1298:ZN O *D gf180mcu_fd_sc_mcu7t5v0__nand2_1
*CAP
1 *1299:A2 0.000144354
2 *1298:ZN 0.000144354
3 *1299:A2 *1307:A3 7.87395e-06
4 *1299:A2 *257:25 4.05503e-05
5 *1368:I *1299:A2 8.94351e-05
*RES
1 *1298:ZN *1299:A2 10.248 
*END

*D_NET *209 0.000606432
*CONN
*I *1300:B I *D gf180mcu_fd_sc_mcu7t5v0__aoi21_1
*I *1299:ZN O *D gf180mcu_fd_sc_mcu7t5v0__nor2_1
*CAP
1 *1300:B 0.000263256
2 *1299:ZN 0.000263256
3 *1331:D *1300:B 0
4 *1368:I *1300:B 7.992e-05
*RES
1 *1299:ZN *1300:B 11.08 
*END

*D_NET *210 0.00148548
*CONN
*I *1302:A2 I *D gf180mcu_fd_sc_mcu7t5v0__oai21_1
*I *1300:ZN O *D gf180mcu_fd_sc_mcu7t5v0__aoi21_1
*CAP
1 *1302:A2 0.000648264
2 *1300:ZN 0.000648264
3 *1302:A2 *1302:A1 2.62817e-05
4 *1302:A2 *278:91 0
5 *1330:D *1302:A2 0
6 *1368:I *1302:A2 0.000162673
*RES
1 *1300:ZN *1302:A2 13.888 
*END

*D_NET *211 0.000676831
*CONN
*I *1302:B I *D gf180mcu_fd_sc_mcu7t5v0__oai21_1
*I *1301:ZN O *D gf180mcu_fd_sc_mcu7t5v0__nand2_1
*CAP
1 *1302:B 3.96198e-05
2 *1301:ZN 3.96198e-05
3 *1302:B *245:28 0.000428493
4 *1302:B *278:91 0.000169099
*RES
1 *1301:ZN *1302:B 10.144 
*END

*D_NET *212 0.000952852
*CONN
*I *1304:C I *D gf180mcu_fd_sc_mcu7t5v0__oai211_1
*I *1303:ZN O *D gf180mcu_fd_sc_mcu7t5v0__nand2_1
*CAP
1 *1304:C 0.000301373
2 *1303:ZN 0.000301373
3 *1304:C *1303:A1 2.98701e-05
4 *1304:C *1306:B 0
5 *1304:C *1406:I 5.64957e-05
6 *1304:C *246:8 4.67771e-06
7 *1304:C *257:10 4.87602e-05
8 *1304:C *284:61 0.000210302
*RES
1 *1303:ZN *1304:C 11.704 
*END

*D_NET *213 0.000289128
*CONN
*I *1306:A2 I *D gf180mcu_fd_sc_mcu7t5v0__oai21_1
*I *1304:ZN O *D gf180mcu_fd_sc_mcu7t5v0__oai211_1
*CAP
1 *1306:A2 0.000116944
2 *1304:ZN 0.000116944
3 *1306:A2 *1291:S 4.45041e-05
4 *1306:A2 *1304:B 1.07369e-05
*RES
1 *1304:ZN *1306:A2 9.728 
*END

*D_NET *214 0.000456435
*CONN
*I *1306:B I *D gf180mcu_fd_sc_mcu7t5v0__oai21_1
*I *1305:ZN O *D gf180mcu_fd_sc_mcu7t5v0__nand2_1
*CAP
1 *1306:B 0.000109444
2 *1305:ZN 0.000109444
3 *1306:B *1406:I 4.30234e-05
4 *1306:B *284:61 0.000194522
5 *1304:C *1306:B 0
*RES
1 *1305:ZN *1306:B 10.248 
*END

*D_NET *215 0.000769834
*CONN
*I *1309:A2 I *D gf180mcu_fd_sc_mcu7t5v0__oai21_1
*I *1307:ZN O *D gf180mcu_fd_sc_mcu7t5v0__nand3_1
*CAP
1 *1309:A2 0.000331931
2 *1307:ZN 0.000331931
3 *1309:A2 *1291:S 0
4 *1309:A2 *278:70 0
5 *1332:D *1309:A2 0.000105973
*RES
1 *1307:ZN *1309:A2 11.496 
*END

*D_NET *216 0.000511663
*CONN
*I *1309:B I *D gf180mcu_fd_sc_mcu7t5v0__oai21_1
*I *1308:ZN O *D gf180mcu_fd_sc_mcu7t5v0__nand2_1
*CAP
1 *1309:B 9.18729e-05
2 *1308:ZN 9.18729e-05
3 *1309:B *274:10 3.55894e-05
4 *1309:B *278:48 0.000292328
*RES
1 *1308:ZN *1309:B 19.352 
*END

*D_NET *217 0.00377859
*CONN
*I *1316:A4 I *D gf180mcu_fd_sc_mcu7t5v0__nand4_1
*I *1314:A2 I *D gf180mcu_fd_sc_mcu7t5v0__aoi21_1
*I *1311:I0 I *D gf180mcu_fd_sc_mcu7t5v0__mux2_2
*I *1310:Z O *D gf180mcu_fd_sc_mcu7t5v0__and2_1
*CAP
1 *1316:A4 0.000220079
2 *1314:A2 0.000103655
3 *1311:I0 0.000620003
4 *1310:Z 0.000162821
5 *217:20 0.000780916
6 *1311:I0 *1311:S 6.18411e-06
7 *1311:I0 *292:8 3.71046e-05
8 *1314:A2 *1315:A2 1.71326e-05
9 *1316:A4 *1316:A1 2.39156e-06
10 *1316:A4 *282:23 0.000259833
11 *1316:A4 *282:59 9.35542e-06
12 *217:20 *1311:S 0.000124466
13 *217:20 *1315:A2 5.47431e-06
14 *217:20 *282:23 0.000888506
15 *217:20 *292:21 9.86485e-05
16 *1316:A2 *1314:A2 3.4596e-05
17 *1316:A2 *1316:A4 4.91944e-05
18 *64:23 *1314:A2 0.000358225
*RES
1 *1310:Z *1311:I0 10.56 
2 *1311:I0 *217:20 9.284 
3 *217:20 *1314:A2 14.748 
4 *217:20 *1316:A4 6.476 
*END

*D_NET *218 0.00176847
*CONN
*I *1313:A2 I *D gf180mcu_fd_sc_mcu7t5v0__aoi21_1
*I *1312:ZN O *D gf180mcu_fd_sc_mcu7t5v0__nand2_1
*CAP
1 *1313:A2 0.000552978
2 *1312:ZN 0.000552978
3 *1313:A2 *1274:A2 0.000210641
4 *1275:A2 *1313:A2 7.4449e-05
5 *1275:A3 *1313:A2 6.26303e-05
6 *1313:A1 *1313:A2 0.000275198
7 *65:12 *1313:A2 0
8 *193:10 *1313:A2 3.95922e-05
*RES
1 *1312:ZN *1313:A2 14.096 
*END

*D_NET *219 0.00317066
*CONN
*I *1317:A2 I *D gf180mcu_fd_sc_mcu7t5v0__oai21_1
*I *1315:A1 I *D gf180mcu_fd_sc_mcu7t5v0__nor2_1
*I *1313:ZN O *D gf180mcu_fd_sc_mcu7t5v0__aoi21_1
*CAP
1 *1317:A2 0
2 *1315:A1 0.000463153
3 *1313:ZN 0.000703269
4 *219:8 0.00116642
5 *1315:A1 *1335:CLK 0.000343632
6 *1315:A1 *1361:I 0.000116624
7 *1315:A1 *241:77 0.000294456
8 *219:8 *282:59 8.31025e-05
9 *1317:A1 *1315:A1 0
10 *65:12 *219:8 0
*RES
1 *1313:ZN *219:8 14.72 
2 *219:8 *1315:A1 13.992 
3 *219:8 *1317:A2 9 
*END

*D_NET *220 0.000474184
*CONN
*I *1315:A2 I *D gf180mcu_fd_sc_mcu7t5v0__nor2_1
*I *1314:ZN O *D gf180mcu_fd_sc_mcu7t5v0__aoi21_1
*CAP
1 *1315:A2 0.000225788
2 *1314:ZN 0.000225788
3 *1314:A2 *1315:A2 1.71326e-05
4 *217:20 *1315:A2 5.47431e-06
*RES
1 *1314:ZN *1315:A2 10.872 
*END

*D_NET *221 0.00079696
*CONN
*I *1317:B I *D gf180mcu_fd_sc_mcu7t5v0__oai21_1
*I *1316:ZN O *D gf180mcu_fd_sc_mcu7t5v0__nand4_1
*CAP
1 *1317:B 0.000242744
2 *1316:ZN 0.000242744
3 *1317:B *282:59 0
4 *1317:A1 *1317:B 0.000311471
*RES
1 *1316:ZN *1317:B 11.184 
*END

*D_NET *222 0.00779179
*CONN
*I *1319:A3 I *D gf180mcu_fd_sc_mcu7t5v0__nand3_1
*I *1318:ZN O *D gf180mcu_fd_sc_mcu7t5v0__nand4_1
*CAP
1 *1319:A3 0.000834808
2 *1318:ZN 0.000834808
3 *1319:A3 *1266:A2 5.37715e-05
4 *1319:A3 *1311:I1 0.000159517
5 *1319:A3 *1320:B 7.6055e-05
6 *1319:A3 *1332:CLK 0.000375916
7 *1319:A3 *244:69 0.000232388
8 *1319:A3 *244:78 0.00254845
9 *1319:A3 *244:107 0.000160555
10 *1319:A3 *278:27 0.000143528
11 *1319:A3 *278:31 0.000122244
12 *1212:A1 *1319:A3 0.000352357
13 *1212:A3 *1319:A3 0.000960784
14 *1269:A2 *1319:A3 0.000517329
15 *1356:D *1319:A3 0.000419276
*RES
1 *1318:ZN *1319:A3 31.52 
*END

*D_NET *223 0.00276588
*CONN
*I *1320:B I *D gf180mcu_fd_sc_mcu7t5v0__oai21_1
*I *1319:ZN O *D gf180mcu_fd_sc_mcu7t5v0__nand3_1
*CAP
1 *1320:B 0.000330169
2 *1319:ZN 0.000330169
3 *1320:B *1311:I1 0.000410048
4 *1320:B *1319:A1 0.000779348
5 *1320:B *1320:A2 1.63622e-05
6 *1320:B *278:27 0.000476175
7 *1320:B *278:31 0.000102795
8 *1269:A2 *1320:B 0.000194511
9 *1319:A3 *1320:B 7.6055e-05
10 *1336:D *1320:B 5.02468e-05
*RES
1 *1319:ZN *1320:B 13.68 
*END

*D_NET *224 0.0122819
*CONN
*I *1221:A1 I *D gf180mcu_fd_sc_mcu7t5v0__and3_1
*I *1224:A1 I *D gf180mcu_fd_sc_mcu7t5v0__and4_1
*I *1161:A1 I *D gf180mcu_fd_sc_mcu7t5v0__xor2_1
*I *1192:A2 I *D gf180mcu_fd_sc_mcu7t5v0__xor2_1
*I *1219:A1 I *D gf180mcu_fd_sc_mcu7t5v0__xor2_1
*I *1222:A1 I *D gf180mcu_fd_sc_mcu7t5v0__aoi21_1
*I *1218:A1 I *D gf180mcu_fd_sc_mcu7t5v0__nor2_1
*I *1337:Q O *D gf180mcu_fd_sc_mcu7t5v0__dffrnq_1
*CAP
1 *1221:A1 0
2 *1224:A1 0.000660308
3 *1161:A1 0.000306972
4 *1192:A2 0
5 *1219:A1 0.000186939
6 *1222:A1 0
7 *1218:A1 0.000214875
8 *1337:Q 0.000292577
9 *224:56 0.000389087
10 *224:52 0.000571493
11 *224:50 0.00146136
12 *224:37 0.000903874
13 *224:16 0.000444433
14 *224:12 0.00035694
15 *1161:A1 *1143:I 0
16 *1161:A1 *1164:A2 6.65041e-05
17 *1161:A1 *248:14 0.000269899
18 *1218:A1 *232:25 0.000116466
19 *1218:A1 *276:32 0.00043752
20 *1219:A1 *1192:A1 1.12327e-05
21 *1224:A1 *1224:A2 3.93698e-05
22 *1224:A1 *231:8 0
23 *1224:A1 *231:44 5.13977e-05
24 *224:12 *1337:RN 4.67771e-06
25 *224:12 *1338:RN 0.000576901
26 *224:12 *232:10 5.98361e-05
27 *224:12 *232:25 5.51262e-06
28 *224:12 *281:52 0.00040626
29 *224:16 *1338:RN 5.3173e-06
30 *224:16 *232:25 0.00017139
31 *224:37 *1338:RN 0.000773876
32 *224:37 *232:25 0.000519093
33 *224:37 *232:40 2.81522e-06
34 *224:50 *1164:A2 0.000135683
35 *224:50 *1338:RN 0.000280513
36 *224:50 *232:40 0.000480737
37 *224:56 *1176:A1 0
38 *1177:A4 *1161:A1 0.000295726
39 *1200:A2 *1161:A1 0.00127314
40 *1200:A2 *224:56 4.05628e-05
41 *1219:A2 *1219:A1 9.56679e-05
42 *1219:A2 *1224:A1 0.000164725
43 *1219:A2 *224:52 7.3514e-05
44 *1219:A2 *224:56 0.00013467
45 *1339:D *224:12 0
*RES
1 *1337:Q *224:12 16.204 
2 *224:12 *224:16 5.02 
3 *224:16 *1218:A1 12.224 
4 *224:16 *224:37 7.516 
5 *224:37 *1222:A1 4.5 
6 *224:37 *224:50 12.3 
7 *224:50 *224:52 0.52 
8 *224:52 *224:56 6.268 
9 *224:56 *1219:A1 6.06 
10 *224:56 *1192:A2 4.5 
11 *224:52 *1161:A1 13.472 
12 *224:50 *1224:A1 14.824 
13 *224:12 *1221:A1 4.5 
*END

*D_NET *225 0.0153908
*CONN
*I *1245:A1 I *D gf180mcu_fd_sc_mcu7t5v0__nor2_1
*I *1246:A3 I *D gf180mcu_fd_sc_mcu7t5v0__nand3_1
*I *1250:A3 I *D gf180mcu_fd_sc_mcu7t5v0__nand4_1
*I *1174:A2 I *D gf180mcu_fd_sc_mcu7t5v0__xor2_1
*I *1189:A2 I *D gf180mcu_fd_sc_mcu7t5v0__xor2_1
*I *1347:Q O *D gf180mcu_fd_sc_mcu7t5v0__dffrnq_1
*CAP
1 *1245:A1 0
2 *1246:A3 4.32082e-05
3 *1250:A3 3.5718e-05
4 *1174:A2 0
5 *1189:A2 0.00047554
6 *1347:Q 0.000413508
7 *225:24 0.00217346
8 *225:18 0.00179996
9 *225:16 0.00033117
10 *225:10 0.000635149
11 *1189:A2 *1175:A1 0.00019377
12 *1189:A2 *1189:A1 2.38773e-05
13 *1189:A2 *1193:A1 8.7794e-05
14 *1189:A2 *1193:A2 0.000491544
15 *1189:A2 *229:27 0.000335461
16 *1189:A2 *248:14 0
17 *1189:A2 *279:18 5.63044e-06
18 *1246:A3 *1246:A2 2.38773e-05
19 *1246:A3 *243:71 1.40331e-05
20 *1250:A3 *1250:A2 1.40331e-05
21 *225:10 *276:93 0
22 *225:16 *1246:A2 0.000241749
23 *225:16 *238:20 0.000605853
24 *225:16 *284:67 0.000149969
25 *225:18 *1246:A2 0.000427051
26 *225:18 *243:71 0.000418233
27 *225:18 *284:67 9.76261e-05
28 *225:24 *1352:RN 5.12872e-06
29 *225:24 *228:10 0.00135756
30 *225:24 *229:27 0.00012114
31 *225:24 *243:71 0.00350764
32 *225:24 *243:75 0.000555519
33 *225:24 *287:12 0
34 *1177:A3 *1189:A2 5.19755e-05
35 *1200:A1 *1189:A2 3.4596e-05
36 *1200:A3 *1189:A2 0.000220496
37 *1248:A2 *225:10 0.000103933
38 *1249:A2 *225:10 0
39 *1251:A2 *1250:A3 0.000103788
40 *1257:A1 *225:24 1.28023e-05
41 *1257:A2 *225:24 7.98419e-05
42 *1393:I *225:24 4.75386e-05
43 *168:66 *225:16 1.61811e-05
44 *168:66 *225:18 1.49954e-05
45 *168:66 *225:24 6.40114e-06
46 *175:8 *225:10 0.000109467
47 *175:8 *225:16 3.57634e-06
*RES
1 *1347:Q *225:10 7.724 
2 *225:10 *225:16 7.412 
3 *225:16 *225:18 1.768 
4 *225:18 *225:24 22.18 
5 *225:24 *1189:A2 10.116 
6 *225:24 *1174:A2 4.5 
7 *225:18 *1250:A3 9.312 
8 *225:16 *1246:A3 9.312 
9 *225:10 *1245:A1 4.5 
*END

*D_NET *226 0.0156497
*CONN
*I *1249:A1 I *D gf180mcu_fd_sc_mcu7t5v0__nor2_1
*I *1250:A4 I *D gf180mcu_fd_sc_mcu7t5v0__nand4_1
*I *1179:A2 I *D gf180mcu_fd_sc_mcu7t5v0__xor2_1
*I *1196:A2 I *D gf180mcu_fd_sc_mcu7t5v0__aoi21_1
*I *1205:C2 I *D gf180mcu_fd_sc_mcu7t5v0__oai222_1
*I *1348:Q O *D gf180mcu_fd_sc_mcu7t5v0__dffrnq_1
*CAP
1 *1249:A1 0
2 *1250:A4 0
3 *1179:A2 0.000278335
4 *1196:A2 8.7088e-05
5 *1205:C2 0.000501374
6 *1348:Q 0.000839685
7 *226:34 0.000807621
8 *226:30 0.00215547
9 *226:22 0.00237989
10 *226:12 0.0015616
11 *1179:A2 *1171:A2 9.67407e-05
12 *1179:A2 *1179:A1 0.00140374
13 *1179:A2 *241:21 2.88595e-06
14 *226:12 *1348:RN 0.000214771
15 *226:22 *238:35 0.000155257
16 *226:22 *284:67 0.000124413
17 *226:30 *1149:I 9.7683e-06
18 *226:30 *1194:B2 0.000169099
19 *226:30 *239:33 7.13766e-05
20 *226:34 *1171:A2 3.67555e-05
21 *226:34 *1179:A1 0.00167346
22 *1184:A1 *1205:C2 8.27233e-06
23 *1187:A3 *1205:C2 0.000183893
24 *1194:B1 *226:30 4.91818e-05
25 *1198:A2 *1196:A2 3.88877e-05
26 *1198:A2 *1205:C2 0.000242621
27 *1200:A4 *1205:C2 0.000216413
28 *1201:A4 *226:34 0.000184989
29 *1203:A3 *226:30 0.000226307
30 *1204:B1 *1179:A2 2.95323e-05
31 *1205:B1 *1205:C2 0.000179186
32 *1205:C1 *1196:A2 5.18522e-05
33 *1205:C1 *1205:C2 0.000248778
34 *1206:A1 *226:30 3.84987e-05
35 *1207:A2 *226:30 1.03327e-05
36 *1249:A2 *226:22 0.000345736
37 *1251:A1 *226:22 5.63051e-05
38 *1251:A1 *226:30 0.000488606
39 *1251:A2 *226:22 0.000320012
40 *1251:A2 *226:30 0.000111743
41 *1257:A2 *226:30 4.91818e-05
42 *1366:I *226:12 0
43 *26:10 *226:12 0
44 *175:8 *226:22 0
*RES
1 *1348:Q *226:12 20.156 
2 *226:12 *226:22 15.552 
3 *226:22 *226:30 17.5 
4 *226:30 *226:34 8.972 
5 *226:34 *1205:C2 18.596 
6 *226:34 *1196:A2 5.228 
7 *226:30 *1179:A2 13.16 
8 *226:22 *1250:A4 4.5 
9 *226:12 *1249:A1 4.5 
*END

*D_NET *227 0.0085368
*CONN
*I *1253:A1 I *D gf180mcu_fd_sc_mcu7t5v0__xnor2_1
*I *1255:A1 I *D gf180mcu_fd_sc_mcu7t5v0__aoi21_1
*I *1191:A2 I *D gf180mcu_fd_sc_mcu7t5v0__xor2_1
*I *1173:A2 I *D gf180mcu_fd_sc_mcu7t5v0__xor2_1
*I *1256:A1 I *D gf180mcu_fd_sc_mcu7t5v0__nand2_1
*I *1349:Q O *D gf180mcu_fd_sc_mcu7t5v0__dffrnq_1
*CAP
1 *1253:A1 0.000265988
2 *1255:A1 0
3 *1191:A2 0.000137069
4 *1173:A2 8.37231e-05
5 *1256:A1 0.000156159
6 *1349:Q 0.000557079
7 *227:47 0.000301761
8 *227:25 0.00110073
9 *227:21 0.00116613
10 *227:6 0.000963659
11 *1173:A2 *1197:A2 0.00012524
12 *1173:A2 *230:32 4.81384e-05
13 *1191:A2 *1191:A1 0.000231712
14 *1191:A2 *1197:A1 1.28023e-05
15 *1191:A2 *1197:A2 0.000102036
16 *1191:A2 *287:12 1.23478e-05
17 *1253:A1 *1254:A1 1.78817e-06
18 *1253:A1 *1258:A1 0
19 *1256:A1 *1256:A2 7.87395e-06
20 *227:6 *1349:RN 0
21 *227:6 *277:8 0
22 *227:21 *284:67 0.000165539
23 *227:21 *284:71 7.53596e-05
24 *227:21 *284:75 0.000195459
25 *227:25 *1197:A2 3.50983e-05
26 *227:25 *1255:B 0.000110958
27 *227:25 *228:12 0.00048923
28 *227:25 *230:32 0.000250466
29 *227:47 *1255:B 4.67771e-06
30 *1251:A1 *1256:A1 4.84242e-05
31 *1251:A1 *227:6 1.60428e-05
32 *1252:A3 *227:6 0.000149455
33 *1253:A2 *1253:A1 0.000948492
34 *1255:A2 *227:21 2.80993e-05
35 *1258:A2 *1253:A1 0.000130077
36 *1348:D *227:6 1.29379e-05
37 *1350:D *1253:A1 0
38 *1350:D *227:25 0
39 *1350:D *227:47 0
40 *178:8 *227:21 0.000449844
41 *182:12 *1256:A1 6.34305e-05
42 *182:12 *227:6 8.89695e-05
*RES
1 *1349:Q *227:6 8.764 
2 *227:6 *1256:A1 5.748 
3 *227:6 *227:21 13.472 
4 *227:21 *227:25 7.904 
5 *227:25 *1173:A2 5.436 
6 *227:25 *1191:A2 15.372 
7 *227:21 *227:47 0.312 
8 *227:47 *1255:A1 4.5 
9 *227:47 *1253:A1 7.516 
*END

*D_NET *228 0.0058555
*CONN
*I *1256:A2 I *D gf180mcu_fd_sc_mcu7t5v0__nand2_1
*I *1255:B I *D gf180mcu_fd_sc_mcu7t5v0__aoi21_1
*I *1169:A2 I *D gf180mcu_fd_sc_mcu7t5v0__xor2_1
*I *1197:A2 I *D gf180mcu_fd_sc_mcu7t5v0__xor2_1
*I *1350:Q O *D gf180mcu_fd_sc_mcu7t5v0__dffrnq_1
*CAP
1 *1256:A2 0.000123947
2 *1255:B 0.000286659
3 *1169:A2 0
4 *1197:A2 0.000274208
5 *1350:Q 0
6 *228:12 0.000917484
7 *228:10 0.00115206
8 *228:4 0.000346066
9 *1197:A2 *1191:A1 1.28023e-05
10 *1197:A2 *1197:A1 0.00041929
11 *1197:A2 *255:14 0
12 *1173:A2 *1197:A2 0.00012524
13 *1191:A2 *1197:A2 0.000102036
14 *1256:A1 *1256:A2 7.87395e-06
15 *1257:A3 *1256:A2 3.3221e-05
16 *182:12 *1256:A2 5.70866e-05
17 *225:24 *228:10 0.00135756
18 *227:25 *1197:A2 3.50983e-05
19 *227:25 *1255:B 0.000110958
20 *227:25 *228:12 0.00048923
21 *227:47 *1255:B 4.67771e-06
*RES
1 *1350:Q *228:4 4.5 
2 *228:4 *228:10 12.432 
3 *228:10 *228:12 5.512 
4 *228:12 *1197:A2 17.244 
5 *228:12 *1169:A2 4.5 
6 *228:10 *1255:B 6.268 
7 *228:4 *1256:A2 5.54 
*END

*D_NET *229 0.00789663
*CONN
*I *1259:A1 I *D gf180mcu_fd_sc_mcu7t5v0__nor2_1
*I *1175:A2 I *D gf180mcu_fd_sc_mcu7t5v0__xor2_1
*I *1193:A2 I *D gf180mcu_fd_sc_mcu7t5v0__xor2_1
*I *1260:A1 I *D gf180mcu_fd_sc_mcu7t5v0__and2_1
*I *1351:Q O *D gf180mcu_fd_sc_mcu7t5v0__dffrnq_1
*CAP
1 *1259:A1 8.75624e-05
2 *1175:A2 0
3 *1193:A2 0.000125847
4 *1260:A1 6.50886e-05
5 *1351:Q 0.000381381
6 *229:27 0.00137858
7 *229:12 0.00150702
8 *229:10 0.00065814
9 *1193:A2 *1198:A1 1.60428e-05
10 *1259:A1 *1263:C 0.000115166
11 *1260:A1 *1263:C 0.000203739
12 *229:10 *277:20 0
13 *229:12 *1263:C 0.000102068
14 *229:27 *1263:C 0.000217234
15 *229:27 *230:12 0
16 *229:27 *255:14 0.000193782
17 *229:27 *279:12 0.000181002
18 *229:27 *288:10 1.26446e-05
19 *1189:A2 *1193:A2 0.000491544
20 *1189:A2 *229:27 0.000335461
21 *1259:A2 *1259:A1 0.000193782
22 *1259:A2 *229:12 3.22108e-05
23 *1260:A2 *229:10 0.00019118
24 *1393:I *229:27 0.000110346
25 *182:14 *229:10 0.00117567
26 *225:24 *229:27 0.00012114
*RES
1 *1351:Q *229:10 17.14 
2 *229:10 *229:12 1.768 
3 *229:12 *1260:A1 5.54 
4 *229:12 *229:27 10.712 
5 *229:27 *1193:A2 5.852 
6 *229:27 *1175:A2 4.5 
7 *229:10 *1259:A1 5.852 
*END

*D_NET *230 0.00846621
*CONN
*I *1196:B I *D gf180mcu_fd_sc_mcu7t5v0__aoi21_1
*I *1183:A2 I *D gf180mcu_fd_sc_mcu7t5v0__xnor2_1
*I *1262:A1 I *D gf180mcu_fd_sc_mcu7t5v0__nor2_1
*I *1263:A1 I *D gf180mcu_fd_sc_mcu7t5v0__aoi211_1
*I *1352:Q O *D gf180mcu_fd_sc_mcu7t5v0__dffrnq_1
*CAP
1 *1196:B 0
2 *1183:A2 0.000522486
3 *1262:A1 9.90366e-05
4 *1263:A1 0
5 *1352:Q 0
6 *230:32 0.00161378
7 *230:12 0.00115954
8 *230:6 0.0021518
9 *1183:A2 *1179:A1 0.000214107
10 *1262:A1 *1263:C 3.96556e-05
11 *230:12 *1263:C 7.87395e-06
12 *230:12 *1352:CLK 0
13 *230:12 *255:14 0
14 *230:32 *1173:A1 0.000236741
15 *230:32 *255:14 0
16 *230:32 *287:12 0
17 *1173:A2 *230:32 4.81384e-05
18 *1182:A1 *230:32 0.000401498
19 *1184:A2 *1183:A2 1.94379e-05
20 *1184:A2 *230:32 0.000228466
21 *1201:A4 *1183:A2 0.000524326
22 *1205:C1 *1183:A2 0.000181002
23 *1205:C1 *230:32 1.23682e-05
24 *1263:A2 *1262:A1 0.000127799
25 *1263:A2 *230:12 1.12327e-05
26 *1263:B *1262:A1 0.000346997
27 *1352:D *230:12 0.000169099
28 *97:8 *230:32 0.000100367
29 *227:25 *230:32 0.000250466
30 *229:27 *230:12 0
*RES
1 *1352:Q *230:6 9 
2 *230:6 *230:12 11.988 
3 *230:12 *1263:A1 4.5 
4 *230:12 *1262:A1 6.06 
5 *230:6 *230:32 14.796 
6 *230:32 *1183:A2 18.7 
7 *230:32 *1196:B 4.5 
*END

*D_NET *231 0.0068654
*CONN
*I *1190:A2 I *D gf180mcu_fd_sc_mcu7t5v0__aoi22_1
*I *1143:I I *D gf180mcu_fd_sc_mcu7t5v0__clkinv_1
*I *1176:A2 I *D gf180mcu_fd_sc_mcu7t5v0__xor2_1
*I *1224:A2 I *D gf180mcu_fd_sc_mcu7t5v0__and4_1
*I *1222:A2 I *D gf180mcu_fd_sc_mcu7t5v0__aoi21_1
*I *1221:A2 I *D gf180mcu_fd_sc_mcu7t5v0__and3_1
*I *1338:Q O *D gf180mcu_fd_sc_mcu7t5v0__dffrnq_1
*CAP
1 *1190:A2 0.000310424
2 *1143:I 0.000160215
3 *1176:A2 0.000246342
4 *1224:A2 0.000801284
5 *1222:A2 0
6 *1221:A2 0.000358287
7 *1338:Q 0
8 *231:46 0.000699728
9 *231:44 0.00119654
10 *231:8 0.000788552
11 *231:4 0.000638603
12 *1176:A2 *1142:I 0
13 *1190:A2 *1142:I 0
14 *1221:A2 *1338:RN 0.000112577
15 *1224:A2 *1224:A4 0
16 *231:8 *1338:RN 0.00116501
17 *231:46 *1142:I 0
18 *1161:A1 *1143:I 0
19 *1198:A2 *1190:A2 8.5894e-05
20 *1198:A2 *231:46 0.000115867
21 *1219:A2 *1176:A2 6.2942e-05
22 *1219:A2 *231:46 1.53275e-05
23 *1223:A3 *1221:A2 1.70427e-05
24 *1224:A1 *1224:A2 3.93698e-05
25 *1224:A1 *231:8 0
26 *1224:A1 *231:44 5.13977e-05
27 *159:8 *231:44 0
28 *159:14 *231:44 0
*RES
1 *1338:Q *231:4 4.5 
2 *231:4 *231:8 4.576 
3 *231:8 *1221:A2 7.1 
4 *231:8 *1222:A2 4.5 
5 *231:4 *1224:A2 6.268 
6 *1224:A2 *231:44 13.264 
7 *231:44 *231:46 2.184 
8 *231:46 *1176:A2 10.352 
9 *231:46 *1143:I 10.144 
10 *231:44 *1190:A2 11.496 
*END

*D_NET *232 0.0168718
*CONN
*I *1224:A3 I *D gf180mcu_fd_sc_mcu7t5v0__and4_1
*I *1188:A2 I *D gf180mcu_fd_sc_mcu7t5v0__xnor2_1
*I *1164:A2 I *D gf180mcu_fd_sc_mcu7t5v0__xor2_1
*I *1222:B I *D gf180mcu_fd_sc_mcu7t5v0__aoi21_1
*I *1221:A3 I *D gf180mcu_fd_sc_mcu7t5v0__and3_1
*I *1339:Q O *D gf180mcu_fd_sc_mcu7t5v0__dffrnq_1
*CAP
1 *1224:A3 0
2 *1188:A2 0.000973407
3 *1164:A2 0.000700792
4 *1222:B 0.000101184
5 *1221:A3 0
6 *1339:Q 0.000872743
7 *232:57 0.00169272
8 *232:40 0.00188914
9 *232:25 0.00091036
10 *232:10 0.00121289
11 *1164:A2 *1161:A2 5.56541e-05
12 *1164:A2 *1192:A1 0
13 *232:10 *1339:RN 3.12008e-05
14 *232:10 *233:12 0.00100291
15 *232:10 *276:26 0.000125263
16 *232:10 *276:28 0.000341092
17 *232:10 *276:32 0.000107132
18 *232:10 *281:52 0.00018897
19 *232:25 *276:32 0.000381377
20 *1161:A1 *1164:A2 6.65041e-05
21 *1200:A2 *1164:A2 0.000567994
22 *1218:A1 *232:25 0.000116466
23 *1219:A2 *1164:A2 0.000732955
24 *1220:A2 *1164:A2 0
25 *1225:A2 *232:10 0.000668179
26 *1227:A1 *1188:A2 0.000653493
27 *1228:A2 *1188:A2 1.78817e-06
28 *1338:D *1164:A2 0
29 *1340:D *232:10 0.000380213
30 *89:10 *1188:A2 1.23478e-05
31 *89:25 *1188:A2 0.001133
32 *157:8 *232:10 0.000576953
33 *159:14 *1188:A2 0
34 *159:27 *1188:A2 0
35 *224:12 *232:10 5.98361e-05
36 *224:12 *232:25 5.51262e-06
37 *224:16 *232:25 0.00017139
38 *224:37 *232:25 0.000519093
39 *224:37 *232:40 2.81522e-06
40 *224:50 *1164:A2 0.000135683
41 *224:50 *232:40 0.000480737
*RES
1 *1339:Q *232:10 19.816 
2 *232:10 *1221:A3 9 
3 *232:10 *232:25 7.724 
4 *232:25 *1222:B 14.02 
5 *232:25 *232:40 8.764 
6 *232:40 *1164:A2 16.072 
7 *232:40 *232:57 3.848 
8 *232:57 *1188:A2 17.008 
9 *232:57 *1224:A3 9 
*END

*D_NET *233 0.0130142
*CONN
*I *1144:I I *D gf180mcu_fd_sc_mcu7t5v0__clkinv_1
*I *1172:A2 I *D gf180mcu_fd_sc_mcu7t5v0__xor2_1
*I *1224:A4 I *D gf180mcu_fd_sc_mcu7t5v0__and4_1
*I *1225:A1 I *D gf180mcu_fd_sc_mcu7t5v0__nor2_1
*I *1340:Q O *D gf180mcu_fd_sc_mcu7t5v0__dffrnq_1
*CAP
1 *1144:I 0.000350015
2 *1172:A2 0.0011581
3 *1224:A4 0.000940525
4 *1225:A1 0
5 *1340:Q 0.000367846
6 *233:12 0.00148823
7 *233:6 0.00172363
8 *1144:I *1188:A1 5.66028e-05
9 *1144:I *235:40 0.000447463
10 *1144:I *235:46 0
11 *1144:I *237:22 0
12 *1172:A2 *235:6 0.000148096
13 *1172:A2 *235:25 0.000694508
14 *1172:A2 *235:40 1.71324e-06
15 *1172:A2 *237:22 0.000254761
16 *1172:A2 *249:20 0.000243752
17 *1224:A4 *1341:CLK 5.47246e-06
18 *233:6 *235:6 8.13929e-05
19 *233:6 *249:20 0.000103719
20 *233:12 *1341:RN 6.85626e-05
21 *233:12 *276:26 0.00062009
22 *233:12 *281:18 0.000143487
23 *233:12 *281:52 0.000116055
24 *1224:A2 *1224:A4 0
25 *1226:A2 *1224:A4 0
26 *1226:A3 *1224:A4 0.000113016
27 *1231:A2 *1172:A2 0.000729923
28 *1232:A3 *1172:A2 0.000265539
29 *1237:A3 *1172:A2 0.000401308
30 *1237:A4 *1172:A2 0.000195699
31 *1342:D *1172:A2 0
32 *1342:D *233:6 0
33 *159:8 *1224:A4 5.13977e-05
34 *159:14 *1224:A4 0.000344971
35 *159:38 *1172:A2 0.000895461
36 *232:10 *233:12 0.00100291
*RES
1 *1340:Q *233:6 7.1 
2 *233:6 *233:12 17.216 
3 *233:12 *1225:A1 4.5 
4 *233:12 *1224:A4 11.988 
5 *233:6 *1172:A2 24.108 
6 *1172:A2 *1144:I 21.328 
*END

*D_NET *234 0.00260507
*CONN
*I *1231:A1 I *D gf180mcu_fd_sc_mcu7t5v0__aoi21_1
*I *1229:A1 I *D gf180mcu_fd_sc_mcu7t5v0__and2_1
*I *1145:I I *D gf180mcu_fd_sc_mcu7t5v0__clkinv_1
*I *1341:Q O *D gf180mcu_fd_sc_mcu7t5v0__dffrnq_1
*CAP
1 *1231:A1 0.000109058
2 *1229:A1 2.37227e-05
3 *1145:I 0.000109098
4 *1341:Q 0
5 *234:8 0.000381402
6 *234:4 0.000357639
7 *1229:A1 *235:25 3.3698e-05
8 *1231:A1 *1231:B 1.98697e-05
9 *1231:A1 *235:25 0.000208838
10 *1231:A1 *249:20 4.81384e-05
11 *234:8 *1231:B 2.73715e-06
12 *234:8 *235:25 0.000266172
13 *234:8 *249:20 0.0010447
*RES
1 *1341:Q *234:4 4.5 
2 *234:4 *234:8 3.744 
3 *234:8 *1145:I 5.436 
4 *234:8 *1229:A1 4.812 
5 *234:4 *1231:A1 6.06 
*END

*D_NET *235 0.0115254
*CONN
*I *1162:A2 I *D gf180mcu_fd_sc_mcu7t5v0__xor2_1
*I *1205:B2 I *D gf180mcu_fd_sc_mcu7t5v0__oai222_1
*I *1190:B2 I *D gf180mcu_fd_sc_mcu7t5v0__aoi22_1
*I *1229:A2 I *D gf180mcu_fd_sc_mcu7t5v0__and2_1
*I *1231:B I *D gf180mcu_fd_sc_mcu7t5v0__aoi21_1
*I *1342:Q O *D gf180mcu_fd_sc_mcu7t5v0__dffrnq_1
*CAP
1 *1162:A2 0.000133113
2 *1205:B2 0.000288189
3 *1190:B2 0
4 *1229:A2 0
5 *1231:B 3.79231e-05
6 *1342:Q 0.000210564
7 *235:46 0.00110336
8 *235:40 0.00166825
9 *235:25 0.00118127
10 *235:6 0.000709791
11 *1162:A2 *237:22 0.000582267
12 *1231:B *249:20 3.3698e-05
13 *235:6 *249:20 0.000233493
14 *235:25 *249:20 0.000435646
15 *235:40 *1188:A1 2.27302e-05
16 *235:40 *1362:I 0
17 *235:40 *237:22 0.000654535
18 *235:40 *249:20 0.000362869
19 *235:46 *1142:I 0.000355296
20 *235:46 *250:23 0
21 *1144:I *235:40 0.000447463
22 *1144:I *235:46 0
23 *1172:A2 *235:6 0.000148096
24 *1172:A2 *235:25 0.000694508
25 *1172:A2 *235:40 1.71324e-06
26 *1181:A1 *235:46 0
27 *1190:A1 *235:46 0.000280581
28 *1190:B1 *1205:B2 0.000389787
29 *1198:A2 *1205:B2 0.000411261
30 *1203:A2 *235:46 0.000441649
31 *1207:A1 *235:46 0
32 *1207:A4 *235:46 0
33 *1229:A1 *235:25 3.3698e-05
34 *1231:A1 *1231:B 1.98697e-05
35 *1231:A1 *235:25 0.000208838
36 *1232:A2 *235:25 0
37 *1232:A3 *235:6 4.39003e-05
38 *1232:A3 *235:25 4.07478e-05
39 *150:8 *235:46 0
40 *233:6 *235:6 8.13929e-05
41 *234:8 *1231:B 2.73715e-06
42 *234:8 *235:25 0.000266172
*RES
1 *1342:Q *235:6 6.892 
2 *235:6 *1231:B 5.124 
3 *235:6 *235:25 6.552 
4 *235:25 *1229:A2 4.5 
5 *235:25 *235:40 15.968 
6 *235:40 *235:46 17.84 
7 *235:46 *1190:B2 4.5 
8 *235:46 *1205:B2 7.724 
9 *235:40 *1162:A2 6.06 
*END

*D_NET *236 0.0155909
*CONN
*I *1233:A1 I *D gf180mcu_fd_sc_mcu7t5v0__nand2_1
*I *1195:A2 I *D gf180mcu_fd_sc_mcu7t5v0__xor2_1
*I *1171:A2 I *D gf180mcu_fd_sc_mcu7t5v0__xor2_1
*I *1237:A1 I *D gf180mcu_fd_sc_mcu7t5v0__nand4_1
*I *1234:A1 I *D gf180mcu_fd_sc_mcu7t5v0__xnor2_1
*I *1343:Q O *D gf180mcu_fd_sc_mcu7t5v0__dffrnq_1
*CAP
1 *1233:A1 9.61684e-06
2 *1195:A2 0.00039009
3 *1171:A2 0.00132276
4 *1237:A1 2.45894e-05
5 *1234:A1 0
6 *1343:Q 0.000973459
7 *236:40 0.00282343
8 *236:23 0.00114592
9 *236:21 0.000434257
10 *236:12 0.00138735
11 *1171:A2 *1171:A1 2.92613e-05
12 *1171:A2 *1179:A1 0
13 *1171:A2 *241:21 0.000347496
14 *1171:A2 *241:39 1.823e-05
15 *1195:A2 *241:11 0.000109705
16 *1195:A2 *241:21 1.78466e-05
17 *1233:A1 *237:14 0.000402936
18 *1237:A1 *237:14 0.000781715
19 *236:12 *1322:CLK 4.79815e-05
20 *236:12 *281:102 0
21 *236:21 *276:84 0
22 *236:23 *237:14 0.000241749
23 *236:40 *241:39 0.00056322
24 *236:40 *276:84 0.000198019
25 *1179:A2 *1171:A2 9.67407e-05
26 *1180:A1 *236:40 1.23682e-05
27 *1181:A2 *236:40 0.000146725
28 *1185:A2 *1195:A2 0.000104542
29 *1187:A3 *1171:A2 0
30 *1187:A3 *1195:A2 9.03046e-05
31 *1187:A3 *236:40 1.49279e-05
32 *1200:A4 *1195:A2 0
33 *1201:A4 *1171:A2 0.0015011
34 *1205:C1 *1171:A2 0.000182219
35 *1207:A2 *1171:A2 0.000142282
36 *1233:A2 *236:21 0.000183471
37 *1234:A2 *236:12 0.000125283
38 *1236:A1 *236:40 0
39 *1236:A2 *236:40 0
40 *1365:I *236:40 0
41 *168:12 *1233:A1 0.000450565
42 *168:12 *1237:A1 0.000689375
43 *168:12 *236:23 0.000274703
44 *168:27 *1195:A2 0.000269899
45 *226:34 *1171:A2 3.67555e-05
*RES
1 *1343:Q *236:12 21.196 
2 *236:12 *1234:A1 4.5 
3 *236:12 *236:21 7.724 
4 *236:21 *236:23 0.728 
5 *236:23 *1237:A1 10.976 
6 *236:23 *236:40 18.568 
7 *236:40 *1171:A2 22.832 
8 *236:40 *1195:A2 12.744 
9 *236:21 *1233:A1 10.144 
*END

*D_NET *237 0.0160185
*CONN
*I *1148:I I *D gf180mcu_fd_sc_mcu7t5v0__clkinv_1
*I *1237:A2 I *D gf180mcu_fd_sc_mcu7t5v0__nand4_1
*I *1204:B2 I *D gf180mcu_fd_sc_mcu7t5v0__oai22_1
*I *1199:A2 I *D gf180mcu_fd_sc_mcu7t5v0__aoi221_1
*I *1344:Q O *D gf180mcu_fd_sc_mcu7t5v0__dffrnq_1
*CAP
1 *1148:I 0.000616705
2 *1237:A2 0
3 *1204:B2 0
4 *1199:A2 0.000694732
5 *1344:Q 0.000872587
6 *237:22 0.00133951
7 *237:14 0.00119717
8 *237:10 0.00204168
9 *1148:I *242:26 0
10 *1148:I *281:102 0.000128977
11 *1199:A2 *1162:A1 6.62988e-05
12 *1199:A2 *241:21 5.77431e-06
13 *237:10 *1344:RN 0
14 *237:22 *1162:A1 0.000454573
15 *237:22 *276:84 3.75723e-05
16 *1144:I *237:22 0
17 *1162:A2 *237:22 0.000582267
18 *1172:A2 *237:22 0.000254761
19 *1180:A2 *237:22 0.000712118
20 *1185:A2 *1148:I 0.000113016
21 *1199:B1 *1199:A2 1.07369e-05
22 *1200:A4 *1199:A2 0.000283521
23 *1200:A4 *237:22 0.000701122
24 *1201:A3 *1199:A2 0.000159517
25 *1203:A3 *1199:A2 0
26 *1204:B1 *1199:A2 0.000771824
27 *1207:A2 *1199:A2 6.7863e-05
28 *1233:A1 *237:14 0.000402936
29 *1236:A1 *1148:I 0.000388517
30 *1237:A1 *237:14 0.000781715
31 *1237:A3 *237:22 4.07478e-05
32 *1238:A1 *1148:I 0.00042386
33 *1238:A2 *1148:I 0.00129598
34 *1238:A3 *237:14 1.92034e-05
35 *1344:D *237:14 0.000126483
36 *1355:D *237:10 0.000159505
37 *151:6 *1148:I 0.000173451
38 *168:12 *1148:I 1.39636e-05
39 *168:12 *237:14 0.000183477
40 *235:40 *237:22 0.000654535
41 *236:23 *237:14 0.000241749
*RES
1 *1344:Q *237:10 15.864 
2 *237:10 *237:14 11.052 
3 *237:14 *237:22 13.964 
4 *237:22 *1199:A2 15.968 
5 *237:22 *1204:B2 9 
6 *237:14 *1237:A2 4.5 
7 *237:10 *1148:I 16.8 
*END

*D_NET *238 0.0171194
*CONN
*I *1240:A1 I *D gf180mcu_fd_sc_mcu7t5v0__xor2_1
*I *1250:A1 I *D gf180mcu_fd_sc_mcu7t5v0__nand4_1
*I *1199:B2 I *D gf180mcu_fd_sc_mcu7t5v0__aoi221_1
*I *1178:A2 I *D gf180mcu_fd_sc_mcu7t5v0__xor2_1
*I *1150:I I *D gf180mcu_fd_sc_mcu7t5v0__clkinv_1
*I *1246:A1 I *D gf180mcu_fd_sc_mcu7t5v0__nand3_1
*I *1345:Q O *D gf180mcu_fd_sc_mcu7t5v0__dffrnq_1
*CAP
1 *1240:A1 0
2 *1250:A1 0
3 *1199:B2 0
4 *1178:A2 0.000262783
5 *1150:I 3.21515e-05
6 *1246:A1 0
7 *1345:Q 0.000698404
8 *238:48 0.000638279
9 *238:37 0.00060451
10 *238:35 0.000336831
11 *238:20 0.000616708
12 *238:12 0.00117514
13 *1150:I *239:33 1.12327e-05
14 *1178:A2 *1147:I 0.000271774
15 *1178:A2 *1179:A1 0
16 *238:12 *1345:CLK 0.000179953
17 *238:12 *254:12 9.41008e-05
18 *238:12 *284:67 0.000172547
19 *238:20 *1246:A2 1.71326e-05
20 *238:20 *1345:CLK 0
21 *238:20 *284:67 0.00286518
22 *238:35 *284:67 0.000775837
23 *238:37 *1250:A2 0.00017298
24 *238:37 *239:33 0.00175735
25 *238:37 *243:71 0.00210685
26 *238:37 *255:14 1.26329e-05
27 *238:48 *1149:I 9.22469e-05
28 *238:48 *1363:I 0.000579191
29 *238:48 *241:21 0
30 *238:48 *243:71 7.22679e-05
31 *1170:A1 *1178:A2 0.00113114
32 *1194:A2 *238:48 0.000249521
33 *1198:B2 *238:48 5.35362e-06
34 *1199:B1 *238:48 3.22108e-05
35 *1199:C *238:48 0.000196169
36 *1201:A3 *1178:A2 0
37 *1203:A3 *238:48 6.83362e-05
38 *1249:A2 *238:35 0
39 *1251:A2 *238:35 1.01781e-05
40 *1251:A2 *238:37 3.57634e-06
41 *1345:D *238:12 0.000149923
42 *91:10 *1178:A2 0.000364104
43 *93:12 *1178:A2 0.000271764
44 *93:12 *238:48 0.000265501
45 *175:8 *238:20 3.22108e-05
46 *175:8 *238:35 3.22108e-05
47 *225:16 *238:20 0.000605853
48 *226:22 *238:35 0.000155257
*RES
1 *1345:Q *238:12 20.78 
2 *238:12 *238:20 16.696 
3 *238:20 *1246:A1 4.5 
4 *238:20 *238:35 11.6 
5 *238:35 *238:37 5.928 
6 *238:37 *1150:I 4.812 
7 *238:37 *238:48 4.992 
8 *238:48 *1178:A2 17.14 
9 *238:48 *1199:B2 4.5 
10 *238:35 *1250:A1 4.5 
11 *238:12 *1240:A1 4.5 
*END

*D_NET *239 0.0147489
*CONN
*I *1170:A2 I *D gf180mcu_fd_sc_mcu7t5v0__xor2_1
*I *1242:A1 I *D gf180mcu_fd_sc_mcu7t5v0__nor2_1
*I *1152:I I *D gf180mcu_fd_sc_mcu7t5v0__clkinv_1
*I *1250:A2 I *D gf180mcu_fd_sc_mcu7t5v0__nand4_1
*I *1246:A2 I *D gf180mcu_fd_sc_mcu7t5v0__nand3_1
*I *1194:B2 I *D gf180mcu_fd_sc_mcu7t5v0__aoi22_1
*I *1346:Q O *D gf180mcu_fd_sc_mcu7t5v0__dffrnq_1
*CAP
1 *1170:A2 0.000128835
2 *1242:A1 0.000266127
3 *1152:I 1.9914e-05
4 *1250:A2 8.41487e-05
5 *1246:A2 0.000152576
6 *1194:B2 0.00013219
7 *1346:Q 0.00043263
8 *239:33 0.000880903
9 *239:14 0.000954202
10 *239:12 0.000281843
11 *239:10 0.000707296
12 *239:8 0.000918539
13 *1152:I *1363:I 4.18157e-05
14 *1170:A2 *254:12 0.00143924
15 *1194:B2 *1149:I 1.12327e-05
16 *1194:B2 *255:14 0.000108368
17 *1242:A1 *276:84 0
18 *1246:A2 *243:71 1.36398e-06
19 *239:10 *243:56 0.000289343
20 *239:12 *243:56 0.000246397
21 *239:14 *243:56 2.76472e-05
22 *239:14 *255:14 1.25277e-05
23 *239:33 *255:14 0.000348286
24 *1150:I *239:33 1.12327e-05
25 *1198:B2 *1152:I 0.000103788
26 *1199:C *1194:B2 1.60028e-05
27 *1199:C *239:14 3.37332e-05
28 *1239:A1 *1242:A1 7.06078e-06
29 *1240:A2 *1170:A2 0.000105621
30 *1243:A1 *1242:A1 1.36398e-06
31 *1243:A2 *239:12 0.000319414
32 *1246:A3 *1246:A2 2.38773e-05
33 *1247:A2 *1246:A2 0.000103788
34 *1250:A3 *1250:A2 1.40331e-05
35 *1251:A2 *1250:A2 5.34458e-06
36 *1251:A2 *239:33 7.87395e-06
37 *1257:A2 *239:33 3.26853e-05
38 *94:17 *239:14 5.0164e-05
39 *96:8 *239:12 0.000107648
40 *96:8 *239:14 0.000116466
41 *168:27 *1170:A2 0.000800476
42 *168:35 *239:10 0.00171952
43 *168:35 *239:12 0.000673196
44 *168:66 *1246:A2 9.74225e-05
45 *172:14 *1242:A1 5.06668e-05
46 *175:8 *1246:A2 5.35362e-06
47 *225:16 *1246:A2 0.000241749
48 *225:18 *1246:A2 0.000427051
49 *226:30 *1194:B2 0.000169099
50 *226:30 *239:33 7.13766e-05
51 *238:20 *1246:A2 1.71326e-05
52 *238:37 *1250:A2 0.00017298
53 *238:37 *239:33 0.00175735
*RES
1 *1346:Q *239:8 12.432 
2 *239:8 *239:10 5.304 
3 *239:10 *239:12 2.6 
4 *239:12 *239:14 1.56 
5 *239:14 *1194:B2 10.664 
6 *239:14 *239:33 11.26 
7 *239:33 *1246:A2 15.788 
8 *239:33 *1250:A2 5.332 
9 *239:12 *1152:I 9.312 
10 *239:10 *1242:A1 10.56 
11 *239:8 *1170:A2 12.848 
*END

*D_NET *240 0.0142998
*CONN
*I *1268:A2 I *D gf180mcu_fd_sc_mcu7t5v0__nand2_1
*I *1212:A2 I *D gf180mcu_fd_sc_mcu7t5v0__nand3_1
*I *1318:A4 I *D gf180mcu_fd_sc_mcu7t5v0__nand4_1
*I *1290:A1 I *D gf180mcu_fd_sc_mcu7t5v0__nand2_1
*I *1310:A1 I *D gf180mcu_fd_sc_mcu7t5v0__and2_1
*I *1278:B2 I *D gf180mcu_fd_sc_mcu7t5v0__oai22_1
*I *1272:A1 I *D gf180mcu_fd_sc_mcu7t5v0__nor2_1
*I *1353:Q O *D gf180mcu_fd_sc_mcu7t5v0__dffrnq_1
*CAP
1 *1268:A2 0
2 *1212:A2 0.000140395
3 *1318:A4 4.64578e-05
4 *1290:A1 0
5 *1310:A1 0.00039362
6 *1278:B2 0
7 *1272:A1 0.000449783
8 *1353:Q 0.000179163
9 *240:66 0.00057855
10 *240:58 0.000680519
11 *240:45 0.00058164
12 *240:32 0.000807625
13 *240:14 0.000589908
14 *240:10 0.000440474
15 *1272:A1 *283:56 0
16 *1272:A1 *294:10 0.00173015
17 *240:10 *283:54 9.33122e-05
18 *240:32 *283:54 0.00010871
19 *240:45 *283:54 0.000248836
20 *240:58 *1166:A2 0.000366224
21 *240:58 *244:67 0
22 *240:58 *244:78 8.48563e-06
23 *240:58 *283:54 0.000226412
24 *240:66 *1166:A2 0.000569975
25 *240:66 *1278:A1 0
26 *1166:A1 *240:66 5.82145e-05
27 *1166:A3 *240:66 0.000491544
28 *1166:A4 *240:66 5.89482e-05
29 *1212:A1 *1212:A2 0.000654135
30 *1212:A1 *1318:A4 0.000427051
31 *1268:A1 *240:58 5.13977e-05
32 *1268:A1 *240:66 0.000275455
33 *1270:B *240:66 0.000313701
34 *1278:B1 *1272:A1 7.75983e-05
35 *1278:B1 *240:14 1.12327e-05
36 *1279:A1 *1310:A1 0.00043772
37 *1279:A2 *240:14 2.50972e-05
38 *1318:A1 *240:66 3.4596e-05
39 *1318:A2 *240:66 1.07369e-05
40 *42:42 *1212:A2 0.000230002
41 *42:42 *1318:A4 0.000435869
42 *83:15 *240:66 1.73223e-05
43 *83:26 *240:66 0.000445345
44 *110:25 *1272:A1 0.000119928
45 *110:34 *1272:A1 0.00179831
46 *111:12 *1272:A1 0
47 *111:12 *240:10 4.91818e-05
48 *111:12 *240:14 0
49 *197:16 *1272:A1 3.62028e-05
50 *197:16 *240:14 0
*RES
1 *1353:Q *240:10 10.664 
2 *240:10 *240:14 5.644 
3 *240:14 *1272:A1 12.508 
4 *240:14 *1278:B2 4.5 
5 *240:10 *240:32 1.144 
6 *240:32 *1310:A1 12.536 
7 *240:32 *240:45 2.6 
8 *240:45 *1290:A1 9 
9 *240:45 *240:58 7.828 
10 *240:58 *240:66 10.844 
11 *240:66 *1318:A4 10.144 
12 *240:66 *1212:A2 10.768 
13 *240:58 *1268:A2 4.5 
*END

*D_NET *241 0.010006
*CONN
*I *1361:I I *D gf180mcu_fd_sc_mcu7t5v0__clkbuf_16
*I *1360:I I *D gf180mcu_fd_sc_mcu7t5v0__clkbuf_16
*I *1358:I I *D gf180mcu_fd_sc_mcu7t5v0__clkbuf_16
*I *1359:I I *D gf180mcu_fd_sc_mcu7t5v0__clkbuf_16
*I *1357:Z O *D gf180mcu_fd_sc_mcu7t5v0__clkbuf_16
*CAP
1 *1361:I 6.13713e-05
2 *1360:I 0.000187419
3 *1358:I 0.000109098
4 *1359:I 0.000125114
5 *1357:Z 0
6 *241:77 0.000710337
7 *241:64 0.000811645
8 *241:53 0.000350099
9 *241:39 0.00103525
10 *241:21 0.00102143
11 *241:11 0.00240485
12 *241:6 0.000582384
13 *1360:I *1335:CLK 5.46834e-05
14 *241:11 *253:12 4.50516e-05
15 *241:21 *1147:I 2.6998e-05
16 *241:21 *1179:A1 7.60808e-05
17 *241:39 *276:84 0
18 *241:64 *1335:CLK 4.7568e-05
19 *241:77 *1316:A1 2.39156e-06
20 *241:77 *1335:CLK 0.000152883
21 *1171:A2 *241:21 0.000347496
22 *1171:A2 *241:39 1.823e-05
23 *1179:A2 *241:21 2.88595e-06
24 *1180:A3 *241:21 8.18603e-05
25 *1180:A4 *241:21 6.41811e-05
26 *1186:A1 *241:11 0
27 *1187:A2 *241:39 1.57479e-05
28 *1195:A2 *241:11 0.000109705
29 *1195:A2 *241:21 1.78466e-05
30 *1199:A2 *241:21 5.77431e-06
31 *1199:C *1359:I 1.80094e-05
32 *1199:C *241:21 5.87709e-06
33 *1204:B1 *241:21 8.14679e-05
34 *1207:A1 *241:39 0.000146725
35 *1315:A1 *1361:I 0.000116624
36 *1315:A1 *241:77 0.000294456
37 *1317:A1 *1361:I 4.19755e-05
38 *1317:A1 *241:77 4.01565e-05
39 *1365:I *241:39 0
40 *1366:I *241:39 0.000125164
41 *64:6 *241:77 7.02352e-05
42 *64:12 *241:77 3.3698e-05
43 *236:40 *241:39 0.00056322
44 *238:48 *241:21 0
*RES
1 *1357:Z *241:6 9 
2 *241:6 *241:11 4.264 
3 *241:11 *241:21 12.612 
4 *241:21 *1359:I 5.436 
5 *241:11 *241:39 12.508 
6 *241:39 *1358:I 5.436 
7 *1357:Z *241:53 4.5 
8 *241:53 *1360:I 5.956 
9 *241:53 *241:64 1.14771 
10 *241:64 *241:77 14.9949 
11 *241:77 *1361:I 5.36543 
*END

*D_NET *242 0.0229635
*CONN
*I *1354:CLK I *D gf180mcu_fd_sc_mcu7t5v0__dffsnq_1
*I *1343:CLK I *D gf180mcu_fd_sc_mcu7t5v0__dffrnq_1
*I *1340:CLK I *D gf180mcu_fd_sc_mcu7t5v0__dffrnq_1
*I *1341:CLK I *D gf180mcu_fd_sc_mcu7t5v0__dffrnq_1
*I *1339:CLK I *D gf180mcu_fd_sc_mcu7t5v0__dffrnq_1
*I *1338:CLK I *D gf180mcu_fd_sc_mcu7t5v0__dffrnq_1
*I *1337:CLK I *D gf180mcu_fd_sc_mcu7t5v0__dffrnq_1
*I *1344:CLK I *D gf180mcu_fd_sc_mcu7t5v0__dffrnq_1
*I *1342:CLK I *D gf180mcu_fd_sc_mcu7t5v0__dffrnq_1
*I *1362:I I *D gf180mcu_fd_sc_mcu7t5v0__clkbuf_2
*I *1358:Z O *D gf180mcu_fd_sc_mcu7t5v0__clkbuf_16
*CAP
1 *1354:CLK 0
2 *1343:CLK 0.000858243
3 *1340:CLK 0
4 *1341:CLK 0.000664063
5 *1339:CLK 0
6 *1338:CLK 0.00081248
7 *1337:CLK 0
8 *1344:CLK 0
9 *1342:CLK 0.00114047
10 *1362:I 0.000149747
11 *1358:Z 0.00083945
12 *242:65 0.00193323
13 *242:59 0.00212429
14 *242:53 0.00301516
15 *242:49 0.00251115
16 *242:45 0.00048502
17 *242:26 0.0016505
18 *1338:CLK *1220:A1 0
19 *1341:CLK *1228:A1 2.46831e-05
20 *1341:CLK *281:52 0.000643775
21 *1342:CLK *276:10 0
22 *1343:CLK *276:24 0
23 *1343:CLK *276:84 0
24 *242:53 *281:39 0.00198164
25 *242:59 *1339:RN 0.000341151
26 *242:59 *281:52 7.16196e-05
27 *1148:I *242:26 0
28 *1224:A4 *1341:CLK 5.47246e-06
29 *1226:A2 *1341:CLK 0.000979229
30 *1226:A3 *1341:CLK 1.19584e-05
31 *1228:A2 *1341:CLK 0
32 *1235:A2 *1343:CLK 1.23682e-05
33 *1236:A1 *242:26 0.000346468
34 *1337:D *1338:CLK 9.168e-05
35 *1337:D *242:65 6.18411e-06
36 *1338:D *1338:CLK 0
37 *1340:D *1341:CLK 4.36604e-05
38 *1343:D *1343:CLK 7.17602e-05
39 *1344:D *1342:CLK 6.18411e-06
40 *1344:D *242:26 0.000647758
41 *1365:I *1342:CLK 0.00037733
42 *1365:I *242:26 0.00026211
43 *88:12 *1362:I 0
44 *168:12 *242:26 0.000406983
45 *168:27 *242:26 0.000447709
46 *235:40 *1362:I 0
*RES
1 *1358:Z *1362:I 9.936 
2 *1358:Z *242:26 20.676 
3 *242:26 *1342:CLK 11.884 
4 *242:26 *1344:CLK 4.5 
5 *1342:CLK *242:45 6.06 
6 *242:45 *242:49 6.476 
7 *242:49 *242:53 15.628 
8 *242:53 *242:59 11.78 
9 *242:59 *242:65 12.82 
10 *242:65 *1337:CLK 4.5 
11 *242:65 *1338:CLK 10.428 
12 *242:59 *1339:CLK 9 
13 *242:53 *1341:CLK 10.74 
14 *242:53 *1340:CLK 4.5 
15 *242:49 *1343:CLK 14.928 
16 *242:45 *1354:CLK 4.5 
*END

*D_NET *243 0.0286034
*CONN
*I *1349:CLK I *D gf180mcu_fd_sc_mcu7t5v0__dffrnq_1
*I *1348:CLK I *D gf180mcu_fd_sc_mcu7t5v0__dffrnq_1
*I *1350:CLK I *D gf180mcu_fd_sc_mcu7t5v0__dffrnq_1
*I *1351:CLK I *D gf180mcu_fd_sc_mcu7t5v0__dffrnq_1
*I *1352:CLK I *D gf180mcu_fd_sc_mcu7t5v0__dffrnq_1
*I *1363:I I *D gf180mcu_fd_sc_mcu7t5v0__clkbuf_2
*I *1334:CLK I *D gf180mcu_fd_sc_mcu7t5v0__dffrnq_1
*I *1333:CLK I *D gf180mcu_fd_sc_mcu7t5v0__dffrnq_1
*I *1353:CLK I *D gf180mcu_fd_sc_mcu7t5v0__dffrnq_1
*I *1346:CLK I *D gf180mcu_fd_sc_mcu7t5v0__dffrnq_1
*I *1359:Z O *D gf180mcu_fd_sc_mcu7t5v0__clkbuf_16
*CAP
1 *1349:CLK 0
2 *1348:CLK 0.0011952
3 *1350:CLK 0
4 *1351:CLK 0.000390601
5 *1352:CLK 0.000381832
6 *1363:I 0.000129225
7 *1334:CLK 0.000131473
8 *1333:CLK 0
9 *1353:CLK 0.000777929
10 *1346:CLK 0.000506478
11 *1359:Z 0.000297662
12 *243:112 0.00216092
13 *243:91 0.00096572
14 *243:75 0.00149974
15 *243:71 0.00157134
16 *243:56 0.00118207
17 *243:26 0.00165262
18 *243:16 0.00100617
19 *1334:CLK *254:12 2.66236e-05
20 *1334:CLK *281:102 0.00012135
21 *1346:CLK *276:84 0.000232874
22 *1348:CLK *1349:RN 0
23 *1348:CLK *277:18 0
24 *1348:CLK *277:20 0
25 *1353:CLK *1335:CLK 0
26 *1353:CLK *244:35 0.000428493
27 *243:26 *1335:CLK 0
28 *243:26 *254:12 8.21146e-06
29 *243:26 *281:102 1.19663e-05
30 *243:71 *284:67 0.00144174
31 *243:71 *284:71 3.52832e-05
32 *243:71 *284:75 0.000864546
33 *243:75 *284:75 3.76797e-05
34 *243:112 *1254:A1 0
35 *243:112 *1258:A1 3.82633e-05
36 *243:112 *1351:RN 0.000383327
37 *243:112 *1352:RN 7.77163e-05
38 *1152:I *1363:I 4.18157e-05
39 *1198:B2 *1363:I 8.94231e-05
40 *1243:A2 *243:56 0.000355296
41 *1244:A2 *243:56 0
42 *1246:A2 *243:71 1.36398e-06
43 *1246:A3 *243:71 1.40331e-05
44 *1247:A2 *243:71 0
45 *1261:A3 *1351:CLK 0
46 *1263:A2 *1351:CLK 0.000127173
47 *1263:A2 *1352:CLK 9.56679e-05
48 *1333:D *1353:CLK 7.17602e-05
49 *1333:D *243:26 7.87395e-06
50 *1334:D *243:26 0.0010264
51 *1346:D *1346:CLK 1.12327e-05
52 *1348:D *1348:CLK 3.1756e-05
53 *1349:D *243:112 6.8199e-07
54 *1350:D *243:112 9.4485e-05
55 *1351:D *1351:CLK 7.87395e-06
56 *1352:D *1352:CLK 5.45754e-05
57 *26:10 *1346:CLK 0.000120191
58 *94:17 *243:56 0.000680568
59 *96:8 *243:56 0.000188231
60 *168:42 *1363:I 2.39156e-06
61 *168:42 *243:71 2.21714e-05
62 *168:55 *243:71 0
63 *168:66 *243:71 0
64 *172:14 *243:56 0.000198334
65 *225:18 *243:71 0.000418233
66 *225:24 *243:71 0.00350764
67 *225:24 *243:75 0.000555519
68 *230:12 *1352:CLK 0
69 *238:37 *243:71 0.00210685
70 *238:48 *1363:I 0.000579191
71 *238:48 *243:71 7.22679e-05
72 *239:10 *243:56 0.000289343
73 *239:12 *243:56 0.000246397
74 *239:14 *243:56 2.76472e-05
*RES
1 *1359:Z *1346:CLK 11.808 
2 *1359:Z *243:16 4.5 
3 *243:16 *243:26 16.176 
4 *243:26 *1353:CLK 10.428 
5 *243:26 *1333:CLK 4.5 
6 *243:16 *1334:CLK 5.852 
7 *1346:CLK *243:56 18.18 
8 *243:56 *1363:I 6.372 
9 *243:56 *243:71 20.724 
10 *243:71 *243:75 10.22 
11 *243:75 *1352:CLK 7.516 
12 *243:75 *1351:CLK 7.516 
13 *243:71 *243:91 4.5 
14 *243:91 *1350:CLK 4.5 
15 *243:91 *243:112 7.488 
16 *243:112 *1348:CLK 22.028 
17 *243:112 *1349:CLK 4.5 
*END

*D_NET *244 0.0253825
*CONN
*I *1332:CLK I *D gf180mcu_fd_sc_mcu7t5v0__dffsnq_1
*I *1336:CLK I *D gf180mcu_fd_sc_mcu7t5v0__dffrnq_1
*I *1321:CLK I *D gf180mcu_fd_sc_mcu7t5v0__dffrnq_1
*I *1324:CLK I *D gf180mcu_fd_sc_mcu7t5v0__dffrnq_1
*I *1323:CLK I *D gf180mcu_fd_sc_mcu7t5v0__dffrnq_1
*I *1356:CLK I *D gf180mcu_fd_sc_mcu7t5v0__dffsnq_1
*I *1364:I I *D gf180mcu_fd_sc_mcu7t5v0__clkbuf_2
*I *1355:CLK I *D gf180mcu_fd_sc_mcu7t5v0__dffsnq_1
*I *1322:CLK I *D gf180mcu_fd_sc_mcu7t5v0__dffrnq_1
*I *1335:CLK I *D gf180mcu_fd_sc_mcu7t5v0__dffrnq_1
*I *1360:Z O *D gf180mcu_fd_sc_mcu7t5v0__clkbuf_16
*CAP
1 *1332:CLK 0.000456616
2 *1336:CLK 0
3 *1321:CLK 0
4 *1324:CLK 3.6366e-05
5 *1323:CLK 0.00126808
6 *1356:CLK 0
7 *1364:I 0
8 *1355:CLK 3.6366e-05
9 *1322:CLK 0.000655086
10 *1335:CLK 0.00149517
11 *1360:Z 0.000487615
12 *244:107 0.000584132
13 *244:80 0.00186124
14 *244:78 0.00149909
15 *244:69 0.00110626
16 *244:67 0.000467582
17 *244:35 0.00175607
18 *244:27 0.00132612
19 *244:12 0.00206818
20 *1323:CLK *1266:A2 2.52484e-05
21 *1323:CLK *256:12 5.05096e-05
22 *1323:CLK *256:16 0.000553742
23 *1332:CLK *278:31 0.000160097
24 *1332:CLK *278:70 0.000208697
25 *1332:CLK *295:23 9.06182e-05
26 *1335:CLK *1345:RN 0.000302189
27 *1335:CLK *253:12 5.12018e-05
28 *244:12 *253:12 0.000277371
29 *244:67 *253:12 0.000316386
30 *244:67 *295:12 2.2764e-05
31 *244:69 *1166:A2 1.09486e-05
32 *244:69 *295:12 1.04703e-05
33 *244:69 *295:23 6.60296e-05
34 *244:78 *1166:A2 0
35 *244:78 *1266:A2 8.70548e-05
36 *244:80 *1266:A2 8.53817e-05
37 *244:107 *295:23 2.11015e-05
38 *1211:A1 *244:35 6.32895e-05
39 *1212:A3 *244:78 4.29477e-05
40 *1268:A1 *244:78 0.000776635
41 *1269:A3 *244:78 2.38773e-05
42 *1288:A1 *1323:CLK 1.46748e-05
43 *1288:A2 *1323:CLK 0
44 *1288:A2 *244:80 0
45 *1289:A2 *244:80 0.000159554
46 *1289:B *1323:CLK 0
47 *1315:A1 *1335:CLK 0.000343632
48 *1319:A3 *1332:CLK 0.000375916
49 *1319:A3 *244:69 0.000232388
50 *1319:A3 *244:78 0.00254845
51 *1319:A3 *244:107 0.000160555
52 *1322:D *1322:CLK 4.07478e-05
53 *1333:D *1335:CLK 9.41125e-05
54 *1335:D *1335:CLK 0
55 *1353:D *244:35 0.000126399
56 *1353:CLK *1335:CLK 0
57 *1353:CLK *244:35 0.000428493
58 *1355:D *1322:CLK 9.32111e-05
59 *1355:D *244:35 6.8199e-07
60 *1360:I *1335:CLK 5.46834e-05
61 *1368:I *1332:CLK 0.000378731
62 *42:14 *244:80 1.01781e-05
63 *42:25 *244:78 0.000214386
64 *42:25 *244:80 7.58561e-05
65 *42:38 *244:78 0.00012524
66 *111:12 *1335:CLK 2.57828e-05
67 *111:12 *244:12 7.90103e-05
68 *111:12 *244:35 0.000859359
69 *154:10 *244:78 1.85523e-05
70 *186:10 *244:67 0.000199988
71 *186:10 *244:107 0.000114409
72 *236:12 *1322:CLK 4.79815e-05
73 *240:58 *244:67 0
74 *240:58 *244:78 8.48563e-06
75 *241:64 *1335:CLK 4.7568e-05
76 *241:77 *1335:CLK 0.000152883
77 *243:26 *1335:CLK 0
*RES
1 *1360:Z *244:12 13.264 
2 *244:12 *1335:CLK 22.104 
3 *244:12 *244:27 6.06 
4 *244:27 *244:35 18.152 
5 *244:35 *1322:CLK 9.492 
6 *244:35 *1355:CLK 4.812 
7 *244:27 *1364:I 4.5 
8 *1360:Z *244:67 15.892 
9 *244:67 *244:69 1.768 
10 *244:69 *1356:CLK 4.5 
11 *244:69 *244:78 12.064 
12 *244:78 *244:80 4.472 
13 *244:80 *1323:CLK 25.564 
14 *244:80 *1324:CLK 4.812 
15 *244:78 *1321:CLK 4.5 
16 *244:67 *244:107 1.352 
17 *244:107 *1336:CLK 4.5 
18 *244:107 *1332:CLK 10.428 
*END

*D_NET *245 0.0220022
*CONN
*I *1325:CLK I *D gf180mcu_fd_sc_mcu7t5v0__dffsnq_1
*I *1327:CLK I *D gf180mcu_fd_sc_mcu7t5v0__dffsnq_1
*I *1328:CLK I *D gf180mcu_fd_sc_mcu7t5v0__dffsnq_1
*I *1329:CLK I *D gf180mcu_fd_sc_mcu7t5v0__dffsnq_1
*I *1347:CLK I *D gf180mcu_fd_sc_mcu7t5v0__dffrnq_1
*I *1345:CLK I *D gf180mcu_fd_sc_mcu7t5v0__dffrnq_1
*I *1326:CLK I *D gf180mcu_fd_sc_mcu7t5v0__dffsnq_1
*I *1330:CLK I *D gf180mcu_fd_sc_mcu7t5v0__dffsnq_1
*I *1331:CLK I *D gf180mcu_fd_sc_mcu7t5v0__dffsnq_1
*I *1361:Z O *D gf180mcu_fd_sc_mcu7t5v0__clkbuf_16
*CAP
1 *1325:CLK 0.000601704
2 *1327:CLK 0
3 *1328:CLK 0
4 *1329:CLK 0.000163194
5 *1347:CLK 0
6 *1345:CLK 0.000447861
7 *1326:CLK 6.06099e-05
8 *1330:CLK 0
9 *1331:CLK 0.000466477
10 *1361:Z 0.000346651
11 *245:55 0.000701032
12 *245:51 0.00108248
13 *245:47 0.00149464
14 *245:41 0.00125378
15 *245:39 0.001219
16 *245:28 0.00085381
17 *245:19 0.000711264
18 *245:6 0.000923225
19 *1325:CLK *1325:SETN 0
20 *1325:CLK *282:102 0
21 *1331:CLK *1296:A3 0
22 *1331:CLK *1300:A2 0
23 *1331:CLK *257:29 0
24 *1331:CLK *257:31 0
25 *1331:CLK *284:67 0.00197876
26 *1345:CLK *254:12 0
27 *1345:CLK *281:113 0.00164993
28 *245:6 *1274:A1 9.06902e-05
29 *245:6 *1295:B 0.00112071
30 *245:6 *257:44 8.1598e-06
31 *245:6 *278:91 6.43437e-05
32 *245:19 *1295:B 0.000538444
33 *245:19 *278:91 6.45091e-05
34 *245:28 *1292:I1 2.25385e-05
35 *245:28 *1295:B 6.85302e-05
36 *245:28 *1301:A1 0.000488479
37 *245:28 *269:8 1.37993e-05
38 *245:28 *278:91 0.00020876
39 *245:28 *282:102 2.81522e-06
40 *245:39 *1327:SETN 8.44565e-06
41 *245:39 *269:8 6.13659e-05
42 *245:39 *282:102 6.95257e-05
43 *245:41 *1294:I1 3.69337e-05
44 *245:41 *1328:SETN 0.000468812
45 *245:41 *1403:I 0.00011019
46 *245:41 *282:96 0.00167108
47 *245:41 *282:102 0
48 *245:47 *1294:I1 2.2404e-05
49 *245:47 *1328:SETN 0.000116476
50 *245:51 *281:113 0
51 *245:55 *281:113 3.70435e-05
52 *1241:A2 *1345:CLK 0.000159517
53 *1296:A1 *245:6 0.00127323
54 *1302:B *245:28 0.000428493
55 *1313:A1 *245:6 0.000103933
56 *1326:D *245:28 0.000419265
57 *1326:D *245:39 3.4596e-05
58 *1328:D *245:47 0
59 *1345:D *1345:CLK 0.0001339
60 *1347:D *1345:CLK 2.08074e-05
61 *238:12 *1345:CLK 0.000179953
62 *238:20 *1345:CLK 0
*RES
1 *1361:Z *245:6 10.22 
2 *245:6 *1331:CLK 18.596 
3 *245:6 *245:19 1.56 
4 *245:19 *1330:CLK 4.5 
5 *245:19 *245:28 6.24 
6 *245:28 *1326:CLK 5.02 
7 *245:28 *245:39 6.06 
8 *245:39 *245:41 6.344 
9 *245:41 *245:47 11.364 
10 *245:47 *245:51 8.972 
11 *245:51 *245:55 6.476 
12 *245:55 *1345:CLK 19.532 
13 *245:55 *1347:CLK 4.5 
14 *245:51 *1329:CLK 10.352 
15 *245:47 *1328:CLK 4.5 
16 *245:41 *1327:CLK 9 
17 *245:39 *1325:CLK 13.888 
*END

*D_NET *246 0.0112009
*CONN
*I *1303:A1 I *D gf180mcu_fd_sc_mcu7t5v0__nand2_1
*I *1304:A2 I *D gf180mcu_fd_sc_mcu7t5v0__oai211_1
*I *1307:A2 I *D gf180mcu_fd_sc_mcu7t5v0__nand3_1
*I *1298:A2 I *D gf180mcu_fd_sc_mcu7t5v0__nand2_1
*I *1295:A1 I *D gf180mcu_fd_sc_mcu7t5v0__oai21_1
*I *1274:A1 I *D gf180mcu_fd_sc_mcu7t5v0__xnor2_1
*I *1296:A2 I *D gf180mcu_fd_sc_mcu7t5v0__oai31_1
*I *1373:Z O *D gf180mcu_fd_sc_mcu7t5v0__dlyb_1
*CAP
1 *1303:A1 0.000234499
2 *1304:A2 0
3 *1307:A2 0.00030741
4 *1298:A2 0
5 *1295:A1 0
6 *1274:A1 0.00017004
7 *1296:A2 0.000307627
8 *1373:Z 0.000317557
9 *246:29 0.00017004
10 *246:16 0.000701603
11 *246:14 0.000595346
12 *246:12 0.000627978
13 *246:10 0.000341169
14 *246:8 0.000774027
15 *1274:A1 *1273:A1 0.00166088
16 *1296:A2 *1295:B 0.00057304
17 *1296:A2 *1313:B 0
18 *1303:A1 *257:10 0.000110024
19 *1303:A1 *273:10 1.51772e-05
20 *1307:A2 *1307:A3 0.000231732
21 *246:8 *257:10 4.18042e-05
22 *246:8 *284:61 0.000397954
23 *246:10 *257:10 0.000211125
24 *246:10 *257:14 3.35294e-05
25 *246:10 *295:36 0.000199988
26 *246:12 *295:36 0.000784655
27 *246:14 *1300:A2 5.39368e-06
28 *246:14 *278:70 0
29 *246:14 *295:36 0.000835855
30 *246:16 *1300:A2 2.2404e-05
31 *246:16 *1313:B 0
32 *246:16 *257:31 0
33 *246:16 *278:70 0
34 rx_data_o[7] *246:8 0
35 *1296:A1 *1274:A1 0.000799133
36 *1297:I0 *1296:A2 5.61634e-05
37 *1303:A2 *1303:A1 0.000419276
38 *1303:A2 *246:8 4.46939e-05
39 *1304:C *1303:A1 2.98701e-05
40 *1304:C *246:8 4.67771e-06
41 *1313:A1 *1274:A1 8.54959e-05
42 *245:6 *1274:A1 9.06902e-05
*RES
1 *1373:Z *246:8 12.224 
2 *246:8 *246:10 2.184 
3 *246:10 *246:12 1.976 
4 *246:12 *246:14 2.392 
5 *246:14 *246:16 2.808 
6 *246:16 *1296:A2 11.496 
7 *246:16 *246:29 4.5 
8 *246:29 *1274:A1 8.972 
9 *246:29 *1295:A1 4.5 
10 *246:14 *1298:A2 9 
11 *246:12 *1307:A2 11.6 
12 *246:10 *1304:A2 9 
13 *246:8 *1303:A1 11.288 
*END

*D_NET *247 0.00175652
*CONN
*I *1176:A1 I *D gf180mcu_fd_sc_mcu7t5v0__xor2_1
*I *1192:A1 I *D gf180mcu_fd_sc_mcu7t5v0__xor2_1
*I *1374:Z O *D gf180mcu_fd_sc_mcu7t5v0__dlyb_1
*CAP
1 *1176:A1 0.000223334
2 *1192:A1 0.00019919
3 *1374:Z 0.000239443
4 *247:8 0.000661967
5 *1176:A1 *248:14 0
6 *1192:A1 *1161:A2 2.38656e-05
7 *247:8 *1161:A2 0.000161509
8 *1164:A2 *1192:A1 0
9 *1200:A2 *1176:A1 0.000179963
10 *1200:A2 *1192:A1 5.60123e-05
11 *1219:A1 *1192:A1 1.12327e-05
12 *1219:A2 *1192:A1 0
13 *1389:I *247:8 0
14 *224:56 *1176:A1 0
*RES
1 *1374:Z *247:8 6.58 
2 *247:8 *1192:A1 6.06 
3 *247:8 *1176:A1 15.476 
*END

*D_NET *248 0.00929672
*CONN
*I *1198:A1 I *D gf180mcu_fd_sc_mcu7t5v0__aoi22_1
*I *1164:A1 I *D gf180mcu_fd_sc_mcu7t5v0__xor2_1
*I *1142:I I *D gf180mcu_fd_sc_mcu7t5v0__clkinv_1
*I *1375:Z O *D gf180mcu_fd_sc_mcu7t5v0__dlyb_1
*CAP
1 *1198:A1 0.00124062
2 *1164:A1 0
3 *1142:I 0.000713516
4 *1375:Z 0.00264656
5 *248:14 0.00211945
6 *1142:I *250:8 7.24259e-05
7 *1142:I *250:23 2.2404e-05
8 *1198:A1 *1179:A1 0
9 *1198:A1 *279:18 0
10 *1198:A1 *285:10 0
11 *1198:A1 *286:10 0.000113458
12 *248:14 *1161:A2 9.48851e-05
13 *248:14 *250:8 0.00016929
14 *248:14 *251:10 5.13977e-05
15 *248:14 *252:12 5.13977e-05
16 *248:14 *285:10 5.13977e-05
17 *1161:A1 *248:14 0.000269899
18 *1176:A1 *248:14 0
19 *1176:A2 *1142:I 0
20 *1177:A1 *248:14 2.66236e-05
21 *1177:A2 *248:14 0
22 *1177:A4 *248:14 0.000260682
23 *1189:A2 *248:14 0
24 *1190:A1 *1142:I 0.00014584
25 *1190:A2 *1142:I 0
26 *1193:A2 *1198:A1 1.60428e-05
27 *1200:A1 *1198:A1 0
28 *1200:A2 *248:14 0
29 *1200:A3 *248:14 0.000200831
30 *1201:A1 *1198:A1 0
31 *1203:A2 *1142:I 0.0006747
32 *1377:I *248:14 0
33 *1378:I *248:14 0
34 *1379:I *248:14 0
35 *1391:I *248:14 0
36 *1395:I *248:14 0
37 *231:46 *1142:I 0
38 *235:46 *1142:I 0.000355296
*RES
1 *1375:Z *248:14 25.044 
2 *248:14 *1142:I 19.844 
3 *248:14 *1164:A1 4.5 
4 *1375:Z *1198:A1 26.32 
*END

*D_NET *249 0.00865838
*CONN
*I *1172:A1 I *D gf180mcu_fd_sc_mcu7t5v0__xor2_1
*I *1188:A1 I *D gf180mcu_fd_sc_mcu7t5v0__xnor2_1
*I *1376:Z O *D gf180mcu_fd_sc_mcu7t5v0__dlyb_1
*CAP
1 *1172:A1 3.6366e-05
2 *1188:A1 0.000451785
3 *1376:Z 0.00216993
4 *249:20 0.00265808
5 *249:20 *1341:RN 0.00015941
6 *249:20 *281:33 0.000168962
7 *1144:I *1188:A1 5.66028e-05
8 *1172:A2 *249:20 0.000243752
9 *1231:A1 *249:20 4.81384e-05
10 *1231:B *249:20 3.3698e-05
11 *1237:A4 *1172:A1 0
12 *1237:A4 *249:20 0.000428493
13 *159:27 *249:20 0
14 *233:6 *249:20 0.000103719
15 *234:8 *249:20 0.0010447
16 *235:6 *249:20 0.000233493
17 *235:25 *249:20 0.000435646
18 *235:40 *1188:A1 2.27302e-05
19 *235:40 *249:20 0.000362869
*RES
1 *1376:Z *249:20 33.26 
2 *249:20 *1188:A1 17.556 
3 *249:20 *1172:A1 4.812 
*END

*D_NET *250 0.00634808
*CONN
*I *1202:A1 I *D gf180mcu_fd_sc_mcu7t5v0__aoi22_1
*I *1204:A1 I *D gf180mcu_fd_sc_mcu7t5v0__oai22_1
*I *1163:A1 I *D gf180mcu_fd_sc_mcu7t5v0__xor2_1
*I *1377:Z O *D gf180mcu_fd_sc_mcu7t5v0__dlyb_1
*CAP
1 *1202:A1 0
2 *1204:A1 3.61193e-05
3 *1163:A1 4.5312e-05
4 *1377:Z 0.000748132
5 *250:23 0.000587873
6 *250:8 0.0013452
7 *1204:A1 *1162:A1 0.000656918
8 *250:8 *251:10 0
9 *1142:I *250:8 7.24259e-05
10 *1142:I *250:23 2.2404e-05
11 *1163:A2 *1163:A1 1.71326e-05
12 *1177:A1 *250:8 0.000238979
13 *1181:A1 *250:8 0.000271554
14 *1181:A1 *250:23 0.000536816
15 *1190:B1 *1163:A1 2.39523e-06
16 *1200:A4 *1204:A1 2.47495e-05
17 *1203:A2 *250:23 0.000265355
18 *1203:A4 *250:23 0.000465617
19 *1204:A2 *1204:A1 0.000355296
20 *1206:A2 *1204:A1 9.76261e-05
21 *1207:A4 *250:23 0.000241108
22 *88:12 *250:23 0.000147775
23 *235:46 *250:23 0
24 *248:14 *250:8 0.00016929
*RES
1 *1377:Z *250:8 14.928 
2 *250:8 *1163:A1 9.312 
3 *250:8 *250:23 12.404 
4 *250:23 *1204:A1 15.268 
5 *250:23 *1202:A1 4.5 
*END

*D_NET *251 0.00975343
*CONN
*I *1205:A1 I *D gf180mcu_fd_sc_mcu7t5v0__oai222_1
*I *1162:A1 I *D gf180mcu_fd_sc_mcu7t5v0__xor2_1
*I *1202:B1 I *D gf180mcu_fd_sc_mcu7t5v0__aoi22_1
*I *1378:Z O *D gf180mcu_fd_sc_mcu7t5v0__dlyb_1
*CAP
1 *1205:A1 0
2 *1162:A1 0.00028346
3 *1202:B1 2.02511e-05
4 *1378:Z 0.000852546
5 *251:16 0.000528488
6 *251:10 0.00107732
7 *251:10 *252:12 0
8 *1163:A2 *251:10 0.000151919
9 *1177:A1 *251:10 2.37461e-05
10 *1180:A2 *1162:A1 0.000307708
11 *1181:A1 *1162:A1 0.000789196
12 *1181:A1 *251:10 0.000179248
13 *1181:A1 *251:16 0.000208046
14 *1199:A2 *1162:A1 6.62988e-05
15 *1200:A2 *251:10 0
16 *1200:A4 *1162:A1 1.54218e-05
17 *1200:A4 *251:10 0.00244319
18 *1200:A4 *251:16 0.000133111
19 *1202:B2 *251:16 0.000689386
20 *1203:A3 *1202:B1 0.000105621
21 *1203:A4 *1202:B1 9.76253e-05
22 *1204:A1 *1162:A1 0.000656918
23 *1206:A2 *1162:A1 1.90528e-05
24 *1206:A2 *251:16 5.23324e-05
25 *89:29 *251:10 3.32153e-05
26 *89:29 *251:16 0.000513353
27 *237:22 *1162:A1 0.000454573
28 *248:14 *251:10 5.13977e-05
29 *250:8 *251:10 0
*RES
1 *1378:Z *251:10 17.736 
2 *251:10 *251:16 4.264 
3 *251:16 *1202:B1 9.312 
4 *251:16 *1162:A1 14.824 
5 *251:10 *1205:A1 9 
*END

*D_NET *252 0.00297739
*CONN
*I *1171:A1 I *D gf180mcu_fd_sc_mcu7t5v0__xor2_1
*I *1146:I I *D gf180mcu_fd_sc_mcu7t5v0__clkinv_1
*I *1379:Z O *D gf180mcu_fd_sc_mcu7t5v0__dlyb_1
*CAP
1 *1171:A1 0.000193568
2 *1146:I 0
3 *1379:Z 0.000849221
4 *252:12 0.00104279
5 *252:12 *289:10 0
6 *1171:A2 *1171:A1 2.92613e-05
7 *1184:A1 *1171:A1 1.60428e-05
8 *1184:A2 *1171:A1 5.77024e-05
9 *1184:A3 *252:12 0.000483536
10 *1187:A3 *252:12 9.11499e-05
11 *1200:A3 *252:12 2.38656e-05
12 *1200:A4 *252:12 5.42299e-05
13 *1201:A4 *252:12 4.28178e-05
14 *1205:C1 *1171:A1 4.18052e-05
15 *248:14 *252:12 5.13977e-05
16 *251:10 *252:12 0
*RES
1 *1379:Z *252:12 19.324 
2 *252:12 *1146:I 4.5 
3 *252:12 *1171:A1 6.06 
*END

*D_NET *253 0.0096889
*CONN
*I *1185:A1 I *D gf180mcu_fd_sc_mcu7t5v0__xor2_1
*I *1195:A1 I *D gf180mcu_fd_sc_mcu7t5v0__xor2_1
*I *1380:Z O *D gf180mcu_fd_sc_mcu7t5v0__dlyb_1
*CAP
1 *1185:A1 0.000239333
2 *1195:A1 6.14846e-05
3 *1380:Z 0.00284791
4 *253:12 0.00314872
5 *1185:A1 *281:102 4.54151e-05
6 *1195:A1 *281:102 1.50543e-05
7 *253:12 *1267:A2 0.000111223
8 *253:12 *1311:I1 0.000254609
9 *253:12 *1336:RN 0.000178559
10 *253:12 *284:31 3.99408e-05
11 *253:12 *290:8 0.00024698
12 *253:12 *295:12 0
13 *1165:A1 *253:12 0.000165016
14 *1185:A2 *1185:A1 0.000298415
15 *1185:A2 *1195:A1 0.000112665
16 *1310:A2 *253:12 5.35151e-05
17 *1320:A1 *253:12 0.000355286
18 *1333:D *253:12 6.42118e-05
19 *1335:CLK *253:12 5.12018e-05
20 *84:26 *253:12 0.00021957
21 *168:27 *1185:A1 1.23682e-05
22 *186:10 *253:12 0.000501776
23 *195:8 *253:12 2.68412e-05
24 *241:11 *253:12 4.50516e-05
25 *244:12 *253:12 0.000277371
26 *244:67 *253:12 0.000316386
*RES
1 *1380:Z *253:12 38.876 
2 *253:12 *1195:A1 5.228 
3 *253:12 *1185:A1 6.892 
*END

*D_NET *254 0.0109552
*CONN
*I *1178:A1 I *D gf180mcu_fd_sc_mcu7t5v0__xor2_1
*I *1147:I I *D gf180mcu_fd_sc_mcu7t5v0__clkinv_1
*I *1381:Z O *D gf180mcu_fd_sc_mcu7t5v0__dlyb_1
*CAP
1 *1178:A1 0
2 *1147:I 0.000245193
3 *1381:Z 0.00292145
4 *254:12 0.00316665
5 *254:12 *281:102 0
6 *254:12 *281:113 0
7 *1170:A1 *1147:I 0.00016407
8 *1170:A1 *254:12 0.00125053
9 *1170:A2 *254:12 0.00143924
10 *1178:A2 *1147:I 0.000271774
11 *1180:A3 *1147:I 1.07369e-05
12 *1186:A1 *254:12 4.9065e-05
13 *1240:A2 *254:12 0.000913064
14 *1241:A2 *254:12 5.47431e-06
15 *1334:CLK *254:12 2.66236e-05
16 *1345:D *254:12 6.21457e-05
17 *1345:CLK *254:12 0
18 *1347:D *254:12 0.000159517
19 *1366:I *254:12 0.000115721
20 *168:27 *254:12 2.46831e-05
21 *238:12 *254:12 9.41008e-05
22 *241:21 *1147:I 2.6998e-05
23 *243:26 *254:12 8.21146e-06
*RES
1 *1381:Z *254:12 35.312 
2 *254:12 *1147:I 11.704 
3 *254:12 *1178:A1 9 
*END

*D_NET *255 0.00650204
*CONN
*I *1194:A1 I *D gf180mcu_fd_sc_mcu7t5v0__aoi22_1
*I *1149:I I *D gf180mcu_fd_sc_mcu7t5v0__clkinv_1
*I *1382:Z O *D gf180mcu_fd_sc_mcu7t5v0__dlyb_1
*CAP
1 *1194:A1 0
2 *1149:I 0.000148688
3 *1382:Z 0.00178756
4 *255:14 0.00193625
5 *255:14 *1191:A1 0.000334616
6 *255:14 *1197:A1 0
7 *255:14 *279:12 0
8 *255:14 *287:12 0.000410691
9 *1194:A2 *1149:I 4.07478e-05
10 *1194:A2 *255:14 0.000660687
11 *1194:B2 *1149:I 1.12327e-05
12 *1194:B2 *255:14 0.000108368
13 *1197:A2 *255:14 0
14 *1199:C *255:14 0
15 *1203:A3 *1149:I 0.00033778
16 *1393:I *255:14 5.61793e-05
17 *226:30 *1149:I 9.7683e-06
18 *229:27 *255:14 0.000193782
19 *230:12 *255:14 0
20 *230:32 *255:14 0
21 *238:37 *255:14 1.26329e-05
22 *238:48 *1149:I 9.22469e-05
23 *239:14 *255:14 1.25277e-05
24 *239:33 *255:14 0.000348286
*RES
1 *1382:Z *255:14 29.412 
2 *255:14 *1149:I 6.164 
3 *255:14 *1194:A1 4.5 
*END

*D_NET *256 0.0128896
*CONN
*I *1266:A2 I *D gf180mcu_fd_sc_mcu7t5v0__nand2_1
*I *1288:B I *D gf180mcu_fd_sc_mcu7t5v0__oai21_1
*I *1286:A1 I *D gf180mcu_fd_sc_mcu7t5v0__and2_1
*I *1155:I I *D gf180mcu_fd_sc_mcu7t5v0__clkinv_1
*I *1383:Z O *D gf180mcu_fd_sc_mcu7t5v0__dlyb_1
*CAP
1 *1266:A2 0.00232015
2 *1288:B 0
3 *1286:A1 6.69546e-05
4 *1155:I 0.000444549
5 *1383:Z 0.000570989
6 *256:16 0.00107306
7 *256:12 0.000754521
8 *256:10 0.00308411
9 *1155:I *1265:A2 3.13856e-05
10 *1155:I *1354:SETN 0.000889951
11 *1266:A2 *1214:A1 0
12 *1266:A2 *1270:A1 0
13 *256:10 *1372:I 5.92008e-05
14 *256:10 *283:10 0.00038183
15 *256:10 *283:34 0.000178877
16 *256:12 *283:10 0.000308093
17 *256:16 *1354:SETN 0.000792034
18 *256:16 *283:10 0.000442938
19 *1212:A3 *1266:A2 0.000173353
20 *1215:A3 *1266:A2 2.3245e-05
21 *1269:A2 *1266:A2 5.43095e-05
22 *1269:A3 *1266:A2 0.00012524
23 *1270:A2 *1266:A2 0.000125251
24 *1271:I *1266:A2 0
25 *1319:A3 *1266:A2 5.37715e-05
26 *1321:D *1266:A2 2.08074e-05
27 *1323:CLK *1266:A2 2.52484e-05
28 *1323:CLK *256:12 5.05096e-05
29 *1323:CLK *256:16 0.000553742
30 *1386:I *256:10 0
31 *154:10 *1266:A2 0.000113027
32 *244:78 *1266:A2 8.70548e-05
33 *244:80 *1266:A2 8.53817e-05
*RES
1 *1383:Z *256:10 14.2 
2 *256:10 *256:12 2.184 
3 *256:12 *256:16 8.944 
4 *256:16 *1155:I 12.952 
5 *256:16 *1286:A1 9.312 
6 *256:12 *1288:B 9 
7 *256:10 *1266:A2 25.848 
*END

*D_NET *257 0.0124449
*CONN
*I *1304:B I *D gf180mcu_fd_sc_mcu7t5v0__oai211_1
*I *1299:A1 I *D gf180mcu_fd_sc_mcu7t5v0__nor2_1
*I *1300:A1 I *D gf180mcu_fd_sc_mcu7t5v0__aoi21_1
*I *1295:A2 I *D gf180mcu_fd_sc_mcu7t5v0__oai21_1
*I *1273:A1 I *D gf180mcu_fd_sc_mcu7t5v0__xnor2_1
*I *1296:A3 I *D gf180mcu_fd_sc_mcu7t5v0__oai31_1
*I *1307:A3 I *D gf180mcu_fd_sc_mcu7t5v0__nand3_1
*I *1384:Z O *D gf180mcu_fd_sc_mcu7t5v0__dlyb_1
*CAP
1 *1304:B 2.24744e-05
2 *1299:A1 0
3 *1300:A1 0.000100667
4 *1295:A2 0
5 *1273:A1 0.000282709
6 *1296:A3 0.000317121
7 *1307:A3 0.000334797
8 *1384:Z 0.000319409
9 *257:44 0.000337526
10 *257:31 0.000630479
11 *257:29 0.000493355
12 *257:25 0.000354972
13 *257:14 0.000665498
14 *257:10 0.000451761
15 *1273:A1 *278:91 0.000241982
16 *1296:A3 *284:67 0
17 *1300:A1 *1300:A2 0.000218453
18 *1304:B *1291:S 0.000113016
19 *1304:B *1307:A1 3.4596e-05
20 *1307:A3 *278:70 0.000500761
21 *257:10 *1300:A2 9.74919e-05
22 *257:10 *273:10 1.9026e-05
23 *257:14 *1300:A2 0.000250237
24 *257:14 *295:36 0.00119345
25 *257:29 *1300:A2 0.000644685
26 *257:31 *1300:A2 0.000199998
27 *257:44 *278:91 0.00057304
28 *1274:A1 *1273:A1 0.00166088
29 *1277:A1 *1273:A1 0.000419265
30 *1296:A1 *1273:A1 0.000570124
31 *1296:A1 *257:44 3.04322e-05
32 *1296:B *257:44 0.000346997
33 *1299:A2 *1307:A3 7.87395e-06
34 *1299:A2 *257:25 4.05503e-05
35 *1303:A1 *257:10 0.000110024
36 *1303:A2 *257:10 1.32185e-05
37 *1304:C *257:10 4.87602e-05
38 *1306:A2 *1304:B 1.07369e-05
39 *1307:A2 *1307:A3 0.000231732
40 *1313:A1 *1273:A1 7.18755e-06
41 *1331:CLK *1296:A3 0
42 *1331:CLK *257:29 0
43 *1331:CLK *257:31 0
44 *1368:I *1300:A1 0.000218453
45 *1368:I *1307:A3 3.65428e-05
46 *245:6 *257:44 8.1598e-06
47 *246:8 *257:10 4.18042e-05
48 *246:10 *257:10 0.000211125
49 *246:10 *257:14 3.35294e-05
50 *246:16 *257:31 0
*RES
1 *1384:Z *257:10 11.704 
2 *257:10 *257:14 7.724 
3 *257:14 *1307:A3 7.932 
4 *257:14 *257:25 1.456 
5 *257:25 *257:29 6.268 
6 *257:29 *257:31 2.184 
7 *257:31 *1296:A3 10.768 
8 *257:31 *257:44 6.06 
9 *257:44 *1273:A1 10.74 
10 *257:44 *1295:A2 4.5 
11 *257:29 *1300:A1 10.56 
12 *257:25 *1299:A1 4.5 
13 *257:10 *1304:B 9.312 
*END

*D_NET *258 0.00273156
*CONN
*I *1157:I I *D gf180mcu_fd_sc_mcu7t5v0__clkinv_1
*I *1280:A1 I *D gf180mcu_fd_sc_mcu7t5v0__nand2_1
*I *1385:Z O *D gf180mcu_fd_sc_mcu7t5v0__dlyb_1
*CAP
1 *1157:I 0
2 *1280:A1 0.000262016
3 *1385:Z 0.000274345
4 *258:8 0.000536361
5 *1280:A1 *1281:A1 0.000118797
6 *1280:A1 *262:14 3.39322e-05
7 *258:8 *1281:A1 5.469e-05
8 *258:8 *1396:I 0.00074334
9 *1284:B *1280:A1 7.50187e-06
10 *42:14 *258:8 0.000597045
11 *43:14 *1280:A1 0
12 *197:39 *1280:A1 6.17457e-05
13 *197:39 *258:8 4.17816e-05
*RES
1 *1385:Z *258:8 13.888 
2 *258:8 *1280:A1 11.08 
3 *258:8 *1157:I 9 
*END

*D_NET *259 0.0024399
*CONN
*I *1372:I I *D gf180mcu_fd_sc_mcu7t5v0__dlyb_1
*I *1386:Z O *D gf180mcu_fd_sc_mcu7t5v0__dlyb_1
*CAP
1 *1372:I 0.000631008
2 *1386:Z 0.000631008
3 *1372:I *1371:I 0.00111869
4 *1383:I *1372:I 0
5 *1386:I *1372:I 0
6 *256:10 *1372:I 5.92008e-05
*RES
1 *1386:Z *1372:I 14.512 
*END

*D_NET *260 0.00140751
*CONN
*I *1264:A2 I *D gf180mcu_fd_sc_mcu7t5v0__or2_1
*I *1387:Z O *D gf180mcu_fd_sc_mcu7t5v0__dlyb_1
*CAP
1 *1264:A2 0.000703756
2 *1387:Z 0.000703756
*RES
1 *1387:Z *1264:A2 22.784 
*END

*D_NET *261 0.00180921
*CONN
*I *1214:A1 I *D gf180mcu_fd_sc_mcu7t5v0__and2_1
*I *1215:A2 I *D gf180mcu_fd_sc_mcu7t5v0__nor3_1
*I *1388:Z O *D gf180mcu_fd_sc_mcu7t5v0__dlyb_1
*CAP
1 *1214:A1 7.23502e-05
2 *1215:A2 0.000121346
3 *1388:Z 4.90283e-05
4 *261:8 0.000242725
5 *1214:A1 *1214:A2 0.000639166
6 *1214:A1 *1398:I 0.000410048
7 *1214:A1 *291:14 3.10787e-05
8 *1214:A1 *291:21 4.18042e-05
9 *1215:A2 *291:14 6.17392e-05
10 *261:8 *291:14 5.82251e-05
11 *1216:A2 *1215:A2 4.50277e-05
12 *1216:A2 *261:8 2.78551e-05
13 *1266:A2 *1214:A1 0
14 *154:10 *1215:A2 8.82081e-06
*RES
1 *1388:Z *261:8 9.52 
2 *261:8 *1215:A2 9.936 
3 *261:8 *1214:A1 10.768 
*END

*D_NET *262 0.0119443
*CONN
*I *1278:A1 I *D gf180mcu_fd_sc_mcu7t5v0__oai22_1
*I *1396:I I *D gf180mcu_fd_sc_mcu7t5v0__dlyb_1
*I *1281:A1 I *D gf180mcu_fd_sc_mcu7t5v0__nand2_1
*I *1160:ZN O *D gf180mcu_fd_sc_mcu7t5v0__nand2_1
*CAP
1 *1278:A1 0.000760443
2 *1396:I 0.000446356
3 *1281:A1 0.000247853
4 *1160:ZN 0.0003273
5 *262:14 0.00132928
6 *262:8 0.00172281
7 *1278:A1 *1141:I 5.4959e-05
8 *1278:A1 *1166:A2 0
9 *1278:A1 *283:54 0.000344023
10 *1278:A1 *294:10 8.1795e-05
11 *1281:A1 *1369:I 0.000235458
12 *1396:I *1369:I 0.000623091
13 *1396:I *1371:I 3.21875e-05
14 *1166:A1 *1278:A1 3.34231e-05
15 *1167:A1 *1396:I 0.00023882
16 *1212:A1 *262:14 0.000229118
17 *1269:A1 *1278:A1 0
18 *1278:A2 *1278:A1 0.000435879
19 *1280:A1 *1281:A1 0.000118797
20 *1280:A1 *262:14 3.39322e-05
21 *1280:A2 *262:14 0.000205524
22 *1283:A2 *1281:A1 8.18386e-06
23 *1284:B *1281:A1 0.000362202
24 *1284:B *262:14 0
25 *1285:I0 *1281:A1 1.78817e-06
26 *1385:I *1396:I 0.000450565
27 *41:55 *1396:I 0.000280581
28 *41:55 *262:14 0.000204432
29 *43:22 *262:14 0.000406474
30 *43:29 *262:14 0.000204895
31 *83:15 *262:14 5.47431e-06
32 *83:26 *1278:A1 0
33 *83:26 *262:8 0.000682718
34 *83:26 *262:14 0
35 *85:8 *1278:A1 0.000355286
36 *194:19 *1278:A1 0.000415607
37 *194:19 *262:14 0.000222222
38 *197:39 *1281:A1 4.4808e-05
39 *240:66 *1278:A1 0
40 *258:8 *1281:A1 5.469e-05
41 *258:8 *1396:I 0.00074334
*RES
1 *1160:ZN *262:8 7.62 
2 *262:8 *262:14 11.156 
3 *262:14 *1281:A1 12.328 
4 *262:14 *1396:I 17.216 
5 *262:8 *1278:A1 21.82 
*END

*D_NET *263 0.00246537
*CONN
*I *1397:I I *D gf180mcu_fd_sc_mcu7t5v0__dlyb_1
*I *1214:Z O *D gf180mcu_fd_sc_mcu7t5v0__and2_1
*CAP
1 *1397:I 0.000590387
2 *1214:Z 0.000590387
3 *1397:I *1399:I 0.000134833
4 *1397:I *283:48 0.000259975
5 *1397:I *284:31 0.000398245
6 *1216:A1 *1397:I 0.000491544
*RES
1 *1214:Z *1397:I 15.656 
*END

*D_NET *264 0.00134635
*CONN
*I *1398:I I *D gf180mcu_fd_sc_mcu7t5v0__dlyb_1
*I *1215:ZN O *D gf180mcu_fd_sc_mcu7t5v0__nor3_1
*CAP
1 *1398:I 0.00031621
2 *1215:ZN 0.00031621
3 *1398:I *291:14 0.00015192
4 *1214:A1 *1398:I 0.000410048
5 *1271:I *1398:I 0.000151966
*RES
1 *1215:ZN *1398:I 21.328 
*END

*D_NET *265 0.000557487
*CONN
*I *1399:I I *D gf180mcu_fd_sc_mcu7t5v0__dlyb_1
*I *1216:ZN O *D gf180mcu_fd_sc_mcu7t5v0__nor2_1
*CAP
1 *1399:I 3.78283e-05
2 *1216:ZN 3.78283e-05
3 *1399:I *284:31 0.000346997
4 *1397:I *1399:I 0.000134833
*RES
1 *1216:ZN *1399:I 9.936 
*END

*D_NET *266 0.00220413
*CONN
*I *1400:I I *D gf180mcu_fd_sc_mcu7t5v0__dlyb_1
*I *1291:I1 I *D gf180mcu_fd_sc_mcu7t5v0__mux2_2
*I *1325:Q O *D gf180mcu_fd_sc_mcu7t5v0__dffsnq_1
*CAP
1 *1400:I 0.000140884
2 *1291:I1 9.22119e-05
3 *1325:Q 0.000339855
4 *266:10 0.000572951
5 *1291:I1 *1325:SETN 0
6 *1291:I1 *1401:I 0.000256285
7 *1400:I *1325:SETN 0
8 *1400:I *1401:I 0.000632232
9 *266:10 *1325:SETN 5.05096e-05
10 rx_data_o[0] *1400:I 0
11 rx_data_o[0] *266:10 4.16074e-05
12 *1325:D *266:10 7.75984e-05
*RES
1 *1325:Q *266:10 16.932 
2 *266:10 *1291:I1 5.228 
3 *266:10 *1400:I 6.268 
*END

*D_NET *267 0.00735519
*CONN
*I *1401:I I *D gf180mcu_fd_sc_mcu7t5v0__dlyb_1
*I *1291:I0 I *D gf180mcu_fd_sc_mcu7t5v0__mux2_2
*I *1292:I1 I *D gf180mcu_fd_sc_mcu7t5v0__mux2_2
*I *1326:Q O *D gf180mcu_fd_sc_mcu7t5v0__dffsnq_1
*CAP
1 *1401:I 0.000662726
2 *1291:I0 0
3 *1292:I1 0.000509957
4 *1326:Q 5.16603e-05
5 *267:23 0.00073665
6 *267:8 0.000635541
7 *1292:I1 *1293:S 8.48683e-06
8 *1292:I1 *1325:SETN 0.000656432
9 *1292:I1 *1402:I 3.55663e-05
10 *1292:I1 *269:8 0.000488468
11 *1292:I1 *269:19 1.51772e-05
12 *1292:I1 *278:91 0.000297401
13 *1292:I1 *282:102 0.00143227
14 *1401:I *1291:S 1.07369e-05
15 *1401:I *1325:SETN 0.000438808
16 *267:8 *1291:S 0
17 *267:8 *1330:SETN 0
18 *267:23 *1325:SETN 0.000450565
19 rx_data_o[1] *1401:I 1.36858e-05
20 *1291:I1 *1401:I 0.000256285
21 *1400:I *1401:I 0.000632232
22 *245:28 *1292:I1 2.25385e-05
*RES
1 *1326:Q *267:8 9.312 
2 *267:8 *1292:I1 16.384 
3 *267:8 *267:23 1.144 
4 *267:23 *1291:I0 9 
5 *267:23 *1401:I 15.032 
*END

*D_NET *268 0.00126166
*CONN
*I *1161:A2 I *D gf180mcu_fd_sc_mcu7t5v0__xor2_1
*I *1389:Z O *D gf180mcu_fd_sc_mcu7t5v0__dlyb_1
*CAP
1 *1161:A2 0.000441333
2 *1389:Z 0.000441333
3 *1164:A2 *1161:A2 5.56541e-05
4 *1177:A2 *1161:A2 4.30799e-05
5 *1192:A1 *1161:A2 2.38656e-05
6 *1200:A2 *1161:A2 0
7 *247:8 *1161:A2 0.000161509
8 *248:14 *1161:A2 9.48851e-05
*RES
1 *1389:Z *1161:A2 12.952 
*END

*D_NET *269 0.00597617
*CONN
*I *1402:I I *D gf180mcu_fd_sc_mcu7t5v0__dlyb_1
*I *1292:I0 I *D gf180mcu_fd_sc_mcu7t5v0__mux2_2
*I *1293:I1 I *D gf180mcu_fd_sc_mcu7t5v0__mux2_2
*I *1327:Q O *D gf180mcu_fd_sc_mcu7t5v0__dffsnq_1
*CAP
1 *1402:I 0.000843181
2 *1292:I0 4.22803e-05
3 *1293:I1 0.000425987
4 *1327:Q 0.000270978
5 *269:19 0.0010405
6 *269:8 0.000852007
7 *1292:I0 *278:91 1.40331e-05
8 *1293:I1 *1293:I0 0
9 *1293:I1 *1293:S 0.00159931
10 *1402:I *1330:SETN 0
11 *269:19 *1293:S 0.000179413
12 *1292:I1 *1402:I 3.55663e-05
13 *1292:I1 *269:8 0.000488468
14 *1292:I1 *269:19 1.51772e-05
15 *1326:D *269:8 9.41008e-05
16 *245:28 *269:8 1.37993e-05
17 *245:39 *269:8 6.13659e-05
*RES
1 *1327:Q *269:8 11.6 
2 *269:8 *1293:I1 14.512 
3 *269:8 *269:19 1.144 
4 *269:19 *1292:I0 9.312 
5 *269:19 *1402:I 14.616 
*END

*D_NET *270 0.004197
*CONN
*I *1403:I I *D gf180mcu_fd_sc_mcu7t5v0__dlyb_1
*I *1294:I1 I *D gf180mcu_fd_sc_mcu7t5v0__mux2_2
*I *1293:I0 I *D gf180mcu_fd_sc_mcu7t5v0__mux2_2
*I *1328:Q O *D gf180mcu_fd_sc_mcu7t5v0__dffsnq_1
*CAP
1 *1403:I 0.000226444
2 *1294:I1 0.000266951
3 *1293:I0 0.000336126
4 *1328:Q 0
5 *270:21 0.000745593
6 *270:4 0.000588325
7 *1293:I0 *1293:S 1.71326e-05
8 *1293:I0 *1294:S 0.000161497
9 *1293:I0 *282:96 9.14625e-05
10 *1294:I1 *1294:S 0.00028351
11 *1294:I1 *1404:I 3.20976e-05
12 *1294:I1 *271:19 6.8199e-07
13 *1403:I *1294:S 0.000274703
14 *1403:I *1404:I 0.000398129
15 *270:21 *1294:S 0.000173238
16 *270:21 *1404:I 2.81522e-06
17 *270:21 *271:19 6.95257e-05
18 *270:21 *282:81 0.000337769
19 *1293:I1 *1293:I0 0
20 *1327:D *270:21 2.14739e-05
21 *245:41 *1294:I1 3.69337e-05
22 *245:41 *1403:I 0.00011019
23 *245:47 *1294:I1 2.2404e-05
*RES
1 *1328:Q *270:4 4.5 
2 *270:4 *1293:I0 16.62 
3 *270:4 *270:21 6.892 
4 *270:21 *1294:I1 11.496 
5 *270:21 *1403:I 12.848 
*END

*D_NET *271 0.00561723
*CONN
*I *1404:I I *D gf180mcu_fd_sc_mcu7t5v0__dlyb_1
*I *1294:I0 I *D gf180mcu_fd_sc_mcu7t5v0__mux2_2
*I *1297:I1 I *D gf180mcu_fd_sc_mcu7t5v0__mux2_2
*I *1329:Q O *D gf180mcu_fd_sc_mcu7t5v0__dffsnq_1
*CAP
1 *1404:I 0.000490871
2 *1294:I0 0
3 *1297:I1 0.000197707
4 *1329:Q 0.000271518
5 *271:19 0.00125141
6 *271:10 0.00122976
7 *1297:I1 *282:72 4.83913e-05
8 *1297:I1 *282:81 4.63309e-05
9 *1404:I *1294:S 0.000534077
10 *271:10 *1297:S 0.000151847
11 *271:19 *1328:SETN 7.992e-05
12 *271:19 *282:81 0.000265442
13 rx_data_o[3] *1404:I 7.27258e-05
14 rx_data_o[4] *1404:I 0.000106768
15 *1294:I1 *1404:I 3.20976e-05
16 *1294:I1 *271:19 6.8199e-07
17 *1327:D *271:19 0.00036721
18 *1328:D *271:19 0
19 *1403:I *1404:I 0.000398129
20 *270:21 *1404:I 2.81522e-06
21 *270:21 *271:19 6.95257e-05
*RES
1 *1329:Q *271:10 16.1 
2 *271:10 *1297:I1 6.06 
3 *271:10 *271:19 6.76 
4 *271:19 *1294:I0 4.5 
5 *271:19 *1404:I 19.428 
*END

*D_NET *272 0.00650028
*CONN
*I *1405:I I *D gf180mcu_fd_sc_mcu7t5v0__dlyb_1
*I *1301:A1 I *D gf180mcu_fd_sc_mcu7t5v0__nand2_1
*I *1295:B I *D gf180mcu_fd_sc_mcu7t5v0__oai21_1
*I *1330:Q O *D gf180mcu_fd_sc_mcu7t5v0__dffsnq_1
*CAP
1 *1405:I 0.000225574
2 *1301:A1 0.000104378
3 *1295:B 0.000281063
4 *1330:Q 0
5 *272:10 0.00103956
6 *272:6 0.000879688
7 *1301:A1 *1301:A2 0.000113027
8 *1405:I *1291:S 0.000276007
9 *1405:I *1406:I 1.60773e-05
10 *1405:I *280:34 9.00616e-05
11 *1405:I *284:67 0
12 *272:10 *280:8 7.98502e-05
13 *272:10 *280:34 0.000448479
14 *272:10 *284:67 0
15 *1296:A2 *1295:B 0.00057304
16 *1297:I0 *1295:B 0.00015732
17 *245:6 *1295:B 0.00112071
18 *245:19 *1295:B 0.000538444
19 *245:28 *1295:B 6.85302e-05
20 *245:28 *1301:A1 0.000488479
*RES
1 *1330:Q *272:6 9 
2 *272:6 *272:10 11.468 
3 *272:10 *1295:B 9.7 
4 *272:10 *1301:A1 5.852 
5 *272:6 *1405:I 11.288 
*END

*D_NET *273 0.00651724
*CONN
*I *1406:I I *D gf180mcu_fd_sc_mcu7t5v0__dlyb_1
*I *1305:A1 I *D gf180mcu_fd_sc_mcu7t5v0__nand2_1
*I *1300:A2 I *D gf180mcu_fd_sc_mcu7t5v0__aoi21_1
*I *1331:Q O *D gf180mcu_fd_sc_mcu7t5v0__dffsnq_1
*CAP
1 *1406:I 0.00069557
2 *1305:A1 0
3 *1300:A2 0.000654931
4 *1331:Q 0.000617017
5 *273:23 0.00069557
6 *273:10 0.00127195
7 *1300:A2 *1305:A2 0.000519402
8 *1300:A2 *1331:SETN 0
9 *1300:A2 *278:91 0
10 *1300:A2 *284:67 0
11 *1300:A2 *295:36 8.25022e-05
12 *1406:I *1291:S 0
13 *1406:I *1331:SETN 2.38656e-05
14 *1406:I *284:61 5.77419e-05
15 *273:10 *1331:SETN 0
16 rx_data_o[5] *1406:I 2.93608e-05
17 rx_data_o[5] *273:10 0
18 *1300:A1 *1300:A2 0.000218453
19 *1303:A1 *273:10 1.51772e-05
20 *1303:A2 *1406:I 1.78817e-06
21 *1304:C *1406:I 5.64957e-05
22 *1306:B *1406:I 4.30234e-05
23 *1331:D *1300:A2 0.00027345
24 *1331:CLK *1300:A2 0
25 *1368:I *1300:A2 5.63044e-06
26 *1405:I *1406:I 1.60773e-05
27 *246:14 *1300:A2 5.39368e-06
28 *246:16 *1300:A2 2.2404e-05
29 *257:10 *1300:A2 9.74919e-05
30 *257:10 *273:10 1.9026e-05
31 *257:14 *1300:A2 0.000250237
32 *257:29 *1300:A2 0.000644685
33 *257:31 *1300:A2 0.000199998
*RES
1 *1331:Q *273:10 13.16 
2 *273:10 *1300:A2 17.736 
3 *273:10 *273:23 4.5 
4 *273:23 *1305:A1 4.5 
5 *273:23 *1406:I 9.7 
*END

*D_NET *274 0.00265741
*CONN
*I *1407:I I *D gf180mcu_fd_sc_mcu7t5v0__dlyb_1
*I *1158:I I *D gf180mcu_fd_sc_mcu7t5v0__clkinv_1
*I *1308:A1 I *D gf180mcu_fd_sc_mcu7t5v0__nand2_1
*I *1332:Q O *D gf180mcu_fd_sc_mcu7t5v0__dffsnq_1
*CAP
1 *1407:I 6.57633e-05
2 *1158:I 0
3 *1308:A1 5.88113e-05
4 *1332:Q 0.000296822
5 *274:21 0.000177623
6 *274:10 0.000467493
7 *1308:A1 *1291:S 0.000265501
8 *1308:A1 *284:48 4.91701e-05
9 *1407:I *1291:S 0.000220496
10 *1407:I *284:61 0.000237629
11 *274:21 *1291:S 0.000632232
12 *274:21 *284:48 4.63426e-05
13 *274:21 *284:61 0.000103933
14 rx_data_o[7] *274:10 0
15 *1309:B *274:10 3.55894e-05
*RES
1 *1332:Q *274:10 16.1 
2 *274:10 *1308:A1 5.228 
3 *274:10 *274:21 2.08 
4 *274:21 *1158:I 4.5 
5 *274:21 *1407:I 6.06 
*END

*D_NET *275 0.00268363
*CONN
*I *1214:A2 I *D gf180mcu_fd_sc_mcu7t5v0__and2_1
*I *1408:I I *D gf180mcu_fd_sc_mcu7t5v0__dlyb_1
*I *1213:ZN O *D gf180mcu_fd_sc_mcu7t5v0__nor2_1
*CAP
1 *1214:A2 0.000288795
2 *1408:I 0.000321091
3 *1213:ZN 0
4 *275:4 0.000609886
5 *1214:A2 *1270:A1 7.87395e-06
6 *1214:A2 *284:31 0.000372741
7 *1214:A2 *291:21 6.51039e-05
8 *1408:I *1270:A1 4.07478e-05
9 *1408:I *284:31 3.17395e-05
10 *1408:I *291:14 0
11 *1408:I *291:21 0.000203739
12 *1214:A1 *1214:A2 0.000639166
13 *1216:A1 *1408:I 2.81577e-05
14 *1216:A2 *1408:I 7.45865e-05
*RES
1 *1213:ZN *275:4 4.5 
2 *275:4 *1408:I 16.204 
3 *275:4 *1214:A2 8.14 
*END

*D_NET *276 0.0257546
*CONN
*I *1235:A1 I *D gf180mcu_fd_sc_mcu7t5v0__nor2_1
*I *1241:A1 I *D gf180mcu_fd_sc_mcu7t5v0__nor2_1
*I *1248:A1 I *D gf180mcu_fd_sc_mcu7t5v0__nor3_1
*I *1244:A1 I *D gf180mcu_fd_sc_mcu7t5v0__nor3_1
*I *1232:A1 I *D gf180mcu_fd_sc_mcu7t5v0__nor3_1
*I *1226:A1 I *D gf180mcu_fd_sc_mcu7t5v0__nor3_1
*I *1228:A1 I *D gf180mcu_fd_sc_mcu7t5v0__nor2_1
*I *1223:A1 I *D gf180mcu_fd_sc_mcu7t5v0__nor3_1
*I *1220:A1 I *D gf180mcu_fd_sc_mcu7t5v0__nor2_1
*I *1218:A2 I *D gf180mcu_fd_sc_mcu7t5v0__nor2_1
*I *1365:Z O *D gf180mcu_fd_sc_mcu7t5v0__dlyb_1
*CAP
1 *1235:A1 0
2 *1241:A1 0.000278915
3 *1248:A1 6.83438e-05
4 *1244:A1 0
5 *1232:A1 3.39097e-05
6 *1226:A1 3.6366e-05
7 *1228:A1 0.000365164
8 *1223:A1 0
9 *1220:A1 0.000707093
10 *1218:A2 0
11 *1365:Z 0.000501361
12 *276:93 0.00108079
13 *276:84 0.00398779
14 *276:53 0.00040153
15 *276:32 0.00133251
16 *276:28 0.000917537
17 *276:26 0.00109563
18 *276:24 0.00120275
19 *276:14 0.00391749
20 *276:10 0.000799263
21 *1241:A1 *281:113 0
22 *1241:A1 *284:67 0.000121341
23 *1248:A1 *1348:RN 0
24 *1248:A1 *284:67 2.57828e-05
25 *276:10 *281:16 6.18411e-06
26 *276:10 *281:94 5.77431e-06
27 *276:24 *281:16 1.51772e-05
28 *276:26 *281:16 9.6017e-06
29 *276:26 *281:18 3.10018e-05
30 *1180:A1 *276:84 0.000488468
31 *1180:A2 *276:84 0.000343311
32 *1180:A3 *276:84 0.000251306
33 *1218:A1 *276:32 0.00043752
34 *1223:A3 *276:32 6.72269e-05
35 *1225:A2 *276:28 0.000501134
36 *1225:A2 *276:32 0.000208806
37 *1226:A2 *1228:A1 0.00120838
38 *1228:A2 *1228:A1 1.71326e-05
39 *1232:A2 *276:24 0.000103933
40 *1232:A2 *276:84 0.000242965
41 *1232:A3 *276:24 0
42 *1237:A3 *276:84 0
43 *1242:A1 *276:84 0
44 *1245:A2 *276:84 4.30651e-05
45 *1245:A2 *276:93 0.000223155
46 *1248:A2 *276:93 5.45754e-05
47 *1337:D *1220:A1 1.12327e-05
48 *1338:D *1220:A1 0.000428493
49 *1338:CLK *1220:A1 0
50 *1341:D *1228:A1 0.000417934
51 *1341:CLK *1228:A1 2.46831e-05
52 *1342:CLK *276:10 0
53 *1343:CLK *276:24 0
54 *1343:CLK *276:84 0
55 *1346:D *276:84 0.000114873
56 *1346:CLK *276:84 0.000232874
57 *1347:D *1241:A1 0.000703355
58 *1347:D *1248:A1 0.000118787
59 *1357:I *276:84 0
60 *26:10 *276:84 0
61 *26:10 *276:93 0
62 *157:8 *276:32 0.000565206
63 *159:14 *1228:A1 0
64 *159:38 *276:84 0
65 *163:6 *276:84 0.000116578
66 *172:14 *276:84 7.77726e-05
67 *225:10 *276:93 0
68 *232:10 *276:26 0.000125263
69 *232:10 *276:28 0.000341092
70 *232:10 *276:32 0.000107132
71 *232:25 *276:32 0.000381377
72 *233:12 *276:26 0.00062009
73 *236:21 *276:84 0
74 *236:40 *276:84 0.000198019
75 *237:22 *276:84 3.75723e-05
76 *241:39 *276:84 0
*RES
1 *1365:Z *276:10 12.952 
2 *276:10 *276:14 6.892 
3 *276:14 *276:24 7.204 
4 *276:24 *276:26 7.8 
5 *276:26 *276:28 3.432 
6 *276:28 *276:32 10.844 
7 *276:32 *1218:A2 4.5 
8 *276:32 *1220:A1 9.804 
9 *276:28 *1223:A1 9 
10 *276:26 *276:53 4.5 
11 *276:53 *1228:A1 8.972 
12 *276:53 *1226:A1 4.812 
13 *276:24 *1232:A1 9.312 
14 *276:14 *276:84 26 
15 *276:84 *1244:A1 4.5 
16 *276:84 *276:93 10.012 
17 *276:93 *1248:A1 9.936 
18 *276:93 *1241:A1 13.472 
19 *276:10 *1235:A1 9 
*END

*D_NET *277 0.0093827
*CONN
*I *1252:A1 I *D gf180mcu_fd_sc_mcu7t5v0__nor3_1
*I *1254:A1 I *D gf180mcu_fd_sc_mcu7t5v0__nor2_1
*I *1258:A1 I *D gf180mcu_fd_sc_mcu7t5v0__nor3_1
*I *1263:C I *D gf180mcu_fd_sc_mcu7t5v0__aoi211_1
*I *1261:A1 I *D gf180mcu_fd_sc_mcu7t5v0__nor3_1
*I *1366:Z O *D gf180mcu_fd_sc_mcu7t5v0__dlyb_1
*CAP
1 *1252:A1 0
2 *1254:A1 0.000298938
3 *1258:A1 0.000227313
4 *1263:C 0.000418715
5 *1261:A1 0.000120219
6 *1366:Z 0.000220979
7 *277:40 0.000526251
8 *277:20 0.00129627
9 *277:18 0.00183397
10 *277:8 0.00129761
11 *1252:A2 *277:8 5.13239e-06
12 *1252:A2 *277:18 0.000199988
13 *1252:A3 *277:18 1.60428e-05
14 *1253:A1 *1254:A1 1.78817e-06
15 *1253:A1 *1258:A1 0
16 *1253:A2 *1254:A1 4.4504e-06
17 *1254:A2 *1254:A1 0.000308285
18 *1259:A1 *1263:C 0.000115166
19 *1259:A2 *1263:C 1.23682e-05
20 *1260:A1 *1263:C 0.000203739
21 *1260:A2 *1263:C 0.000256274
22 *1260:A2 *277:20 0
23 *1261:A2 *1261:A1 0.000271764
24 *1261:A2 *277:20 0.000199998
25 *1261:A3 *1263:C 0.000279433
26 *1262:A1 *1263:C 3.96556e-05
27 *1262:A2 *1263:C 0.000254761
28 *1263:A2 *1263:C 0
29 *1263:B *1263:C 8.14679e-05
30 *1348:D *277:8 0.00010741
31 *1348:CLK *277:18 0
32 *1348:CLK *277:20 0
33 *1349:D *1254:A1 0.000419276
34 *182:12 *277:18 0
35 *182:14 *277:18 0
36 *182:14 *277:20 0
37 *227:6 *277:8 0
38 *229:10 *277:20 0
39 *229:12 *1263:C 0.000102068
40 *229:27 *1263:C 0.000217234
41 *230:12 *1263:C 7.87395e-06
42 *243:112 *1254:A1 0
43 *243:112 *1258:A1 3.82633e-05
*RES
1 *1366:Z *277:8 6.372 
2 *277:8 *277:18 12.82 
3 *277:18 *277:20 4.888 
4 *277:20 *1261:A1 10.144 
5 *277:20 *1263:C 14.928 
6 *277:18 *277:40 4.5 
7 *277:40 *1258:A1 6.06 
8 *277:40 *1254:A1 7.62 
9 *277:8 *1252:A1 4.5 
*END

*D_NET *278 0.0301547
*CONN
*I *1294:S I *D gf180mcu_fd_sc_mcu7t5v0__mux2_2
*I *1320:A2 I *D gf180mcu_fd_sc_mcu7t5v0__oai21_1
*I *1319:A2 I *D gf180mcu_fd_sc_mcu7t5v0__nand3_1
*I *1292:S I *D gf180mcu_fd_sc_mcu7t5v0__mux2_2
*I *1293:S I *D gf180mcu_fd_sc_mcu7t5v0__mux2_2
*I *1313:B I *D gf180mcu_fd_sc_mcu7t5v0__aoi21_1
*I *1291:S I *D gf180mcu_fd_sc_mcu7t5v0__mux2_2
*I *1308:A2 I *D gf180mcu_fd_sc_mcu7t5v0__nand2_1
*I *1309:A1 I *D gf180mcu_fd_sc_mcu7t5v0__oai21_1
*I *1311:I1 I *D gf180mcu_fd_sc_mcu7t5v0__mux2_2
*I *1367:Z O *D gf180mcu_fd_sc_mcu7t5v0__dlyb_1
*CAP
1 *1294:S 0.000536689
2 *1320:A2 0.000297461
3 *1319:A2 0
4 *1292:S 0
5 *1293:S 0.000872163
6 *1313:B 0.000205544
7 *1291:S 0.00147315
8 *1308:A2 0
9 *1309:A1 0
10 *1311:I1 0.00120259
11 *1367:Z 8.83546e-05
12 *278:91 0.00148735
13 *278:70 0.0022002
14 *278:48 0.00163959
15 *278:35 0.000546611
16 *278:31 0.00141935
17 *278:27 0.000274705
18 *278:12 0.00142396
19 *278:8 0.000528875
20 *1291:S *1307:A1 0.000381156
21 *1291:S *280:34 0.00156843
22 *1291:S *284:48 8.16884e-06
23 *1291:S *284:61 0.000605048
24 *1293:S *282:81 0
25 *1293:S *282:102 4.85468e-05
26 *1294:S *282:81 0.00011113
27 *1311:I1 *1267:A2 0.000602924
28 *1311:I1 *1370:I 0
29 *1311:I1 *282:12 0
30 *1320:A2 *1319:A1 4.84242e-05
31 *1320:A2 *284:31 0
32 *278:8 *1370:I 0.000176597
33 *278:8 *290:8 4.38041e-05
34 *278:12 *1267:A2 8.77606e-06
35 *278:12 *1370:I 6.52129e-05
36 *278:12 *290:8 2.17529e-05
37 *1165:A1 *1311:I1 0.000106014
38 *1273:A1 *278:91 0.000241982
39 *1292:I0 *278:91 1.40331e-05
40 *1292:I1 *1293:S 8.48683e-06
41 *1292:I1 *278:91 0.000297401
42 *1293:I0 *1293:S 1.71326e-05
43 *1293:I0 *1294:S 0.000161497
44 *1293:I1 *1293:S 0.00159931
45 *1294:I1 *1294:S 0.00028351
46 *1296:A1 *1313:B 0.000118926
47 *1296:A2 *1313:B 0
48 *1300:A2 *278:91 0
49 *1302:A2 *278:91 0
50 *1302:B *278:91 0.000169099
51 *1304:B *1291:S 0.000113016
52 *1306:A2 *1291:S 4.45041e-05
53 *1307:A3 *278:70 0.000500761
54 *1308:A1 *1291:S 0.000265501
55 *1309:A2 *1291:S 0
56 *1309:A2 *278:70 0
57 *1309:B *278:48 0.000292328
58 *1310:A2 *1311:I1 0.000355286
59 *1319:A3 *1311:I1 0.000159517
60 *1319:A3 *278:27 0.000143528
61 *1319:A3 *278:31 0.000122244
62 *1320:B *1311:I1 0.000410048
63 *1320:B *1320:A2 1.63622e-05
64 *1320:B *278:27 0.000476175
65 *1320:B *278:31 0.000102795
66 *1330:D *278:91 0.0012033
67 *1332:D *278:31 1.78817e-06
68 *1332:D *278:70 0.000221813
69 *1332:CLK *278:31 0.000160097
70 *1332:CLK *278:70 0.000208697
71 *1336:D *1320:A2 0.000408707
72 *1367:I *1311:I1 0
73 *1367:I *278:12 9.52686e-05
74 *1368:I *278:70 0.000127293
75 *1401:I *1291:S 1.07369e-05
76 *1403:I *1294:S 0.000274703
77 *1404:I *1294:S 0.000534077
78 *1405:I *1291:S 0.000276007
79 *1406:I *1291:S 0
80 *1407:I *1291:S 0.000220496
81 *84:26 *1311:I1 0.000155524
82 *195:8 *1311:I1 0.000199998
83 *205:10 *1311:I1 0
84 *245:6 *278:91 6.43437e-05
85 *245:19 *278:91 6.45091e-05
86 *245:28 *278:91 0.00020876
87 *246:14 *278:70 0
88 *246:16 *1313:B 0
89 *246:16 *278:70 0
90 *253:12 *1311:I1 0.000254609
91 *257:44 *278:91 0.00057304
92 *267:8 *1291:S 0
93 *269:19 *1293:S 0.000179413
94 *270:21 *1294:S 0.000173238
95 *274:21 *1291:S 0.000632232
*RES
1 *1367:Z *278:8 10.56 
2 *278:8 *278:12 5.852 
3 *278:12 *1311:I1 25.148 
4 *278:12 *278:27 1.352 
5 *278:27 *278:31 2.288 
6 *278:31 *278:35 6.476 
7 *278:35 *1309:A1 9 
8 *278:35 *278:48 6.372 
9 *278:48 *1308:A2 4.5 
10 *278:48 *1291:S 20.204 
11 *278:31 *278:70 12.82 
12 *278:70 *1313:B 10.352 
13 *278:70 *278:91 16.46 
14 *278:91 *1293:S 18.284 
15 *278:91 *1292:S 4.5 
16 *278:27 *1319:A2 4.5 
17 *278:8 *1320:A2 11.392 
18 *1293:S *1294:S 23.616 
*END

*D_NET *279 0.00706133
*CONN
*I *1174:A1 I *D gf180mcu_fd_sc_mcu7t5v0__xor2_1
*I *1151:I I *D gf180mcu_fd_sc_mcu7t5v0__clkinv_1
*I *1198:B1 I *D gf180mcu_fd_sc_mcu7t5v0__aoi22_1
*I *1390:Z O *D gf180mcu_fd_sc_mcu7t5v0__dlyb_1
*CAP
1 *1174:A1 0
2 *1151:I 0.000174882
3 *1198:B1 0.000168359
4 *1390:Z 0.000336356
5 *279:18 0.00127882
6 *279:12 0.00127193
7 *1151:I *1197:A1 8.77606e-06
8 *279:12 *1197:A1 0.00019118
9 *279:12 *288:10 0.00071635
10 *279:18 *1175:A1 0.00019377
11 *279:18 *1197:A1 0.000142394
12 *279:18 *286:10 0.00149085
13 *1182:A4 *279:18 1.80666e-05
14 *1189:A2 *279:18 5.63044e-06
15 *1198:A1 *279:18 0
16 *1198:B2 *1151:I 0.000605863
17 *1198:B2 *1198:B1 0.000228035
18 *1393:I *279:12 4.9065e-05
19 *97:8 *1198:B1 0
20 *229:27 *279:12 0.000181002
21 *255:14 *279:12 0
*RES
1 *1390:Z *279:12 16.828 
2 *279:12 *279:18 12.612 
3 *279:18 *1198:B1 10.56 
4 *279:18 *1151:I 10.976 
5 *279:12 *1174:A1 4.5 
*END

*D_NET *280 0.00811855
*CONN
*I *1302:A1 I *D gf180mcu_fd_sc_mcu7t5v0__oai21_1
*I *1306:A1 I *D gf180mcu_fd_sc_mcu7t5v0__oai21_1
*I *1305:A2 I *D gf180mcu_fd_sc_mcu7t5v0__nand2_1
*I *1301:A2 I *D gf180mcu_fd_sc_mcu7t5v0__nand2_1
*I *1297:S I *D gf180mcu_fd_sc_mcu7t5v0__mux2_2
*I *1368:Z O *D gf180mcu_fd_sc_mcu7t5v0__dlyb_1
*CAP
1 *1302:A1 0.000108631
2 *1306:A1 0
3 *1305:A2 0.000123691
4 *1301:A2 3.02025e-05
5 *1297:S 0.000540995
6 *1368:Z 0
7 *280:34 0.0011307
8 *280:8 0.000815877
9 *280:6 0.00125169
10 *280:4 0.000108631
11 *1297:S *282:72 0.000509988
12 *1305:A2 *1331:SETN 0
13 *1305:A2 *284:67 0
14 *1291:S *280:34 0.00156843
15 *1297:I0 *1297:S 0
16 *1300:A2 *1305:A2 0.000519402
17 *1301:A1 *1301:A2 0.000113027
18 *1302:A2 *1302:A1 2.62817e-05
19 *1330:D *1302:A1 0.000500772
20 *1331:D *280:34 0
21 *1405:I *280:34 9.00616e-05
22 *271:10 *1297:S 0.000151847
23 *272:10 *280:8 7.98502e-05
24 *272:10 *280:34 0.000448479
*RES
1 *1368:Z *280:4 4.5 
2 *280:4 *280:6 4.5 
3 *280:6 *280:8 1.56 
4 *280:8 *1297:S 14.408 
5 *280:8 *1301:A2 9.312 
6 *280:6 *280:34 15.524 
7 *280:34 *1305:A2 14.852 
8 *280:34 *1306:A1 4.5 
9 *280:4 *1302:A1 5.852 
*END

*D_NET *281 0.0320001
*CONN
*I *1343:RN I *D gf180mcu_fd_sc_mcu7t5v0__dffrnq_1
*I *1347:RN I *D gf180mcu_fd_sc_mcu7t5v0__dffrnq_1
*I *1348:RN I *D gf180mcu_fd_sc_mcu7t5v0__dffrnq_1
*I *1346:RN I *D gf180mcu_fd_sc_mcu7t5v0__dffrnq_1
*I *1342:RN I *D gf180mcu_fd_sc_mcu7t5v0__dffrnq_1
*I *1340:RN I *D gf180mcu_fd_sc_mcu7t5v0__dffrnq_1
*I *1337:RN I *D gf180mcu_fd_sc_mcu7t5v0__dffrnq_1
*I *1338:RN I *D gf180mcu_fd_sc_mcu7t5v0__dffrnq_1
*I *1339:RN I *D gf180mcu_fd_sc_mcu7t5v0__dffrnq_1
*I *1341:RN I *D gf180mcu_fd_sc_mcu7t5v0__dffrnq_1
*I *1369:Z O *D gf180mcu_fd_sc_mcu7t5v0__dlyb_1
*CAP
1 *1343:RN 0
2 *1347:RN 0
3 *1348:RN 0.000664006
4 *1346:RN 0
5 *1342:RN 0
6 *1340:RN 0
7 *1337:RN 4.96567e-05
8 *1338:RN 0.000735904
9 *1339:RN 8.10286e-05
10 *1341:RN 0.00061178
11 *1369:Z 0.00025362
12 *281:113 0.00244943
13 *281:102 0.00497007
14 *281:94 0.00340753
15 *281:52 0.00150318
16 *281:39 0.00122249
17 *281:33 0.000707786
18 *281:18 0.00120198
19 *281:16 0.00146845
20 *281:10 0.0016387
21 *1148:I *281:102 0.000128977
22 *1185:A1 *281:102 4.54151e-05
23 *1185:A2 *281:102 0
24 *1195:A1 *281:102 1.50543e-05
25 *1221:A2 *1338:RN 0.000112577
26 *1238:A1 *281:102 0.000254197
27 *1241:A1 *281:113 0
28 *1248:A1 *1348:RN 0
29 *1248:A3 *1348:RN 0
30 *1249:A2 *1348:RN 0
31 *1334:D *281:102 0.000336128
32 *1334:CLK *281:102 0.00012135
33 *1340:D *281:52 0.000137141
34 *1341:CLK *281:52 0.000643775
35 *1342:D *281:16 0.000653943
36 *1344:D *281:102 1.74189e-05
37 *1345:CLK *281:113 0.00164993
38 *1347:D *1348:RN 0
39 *1347:D *281:113 0
40 *151:6 *281:102 0.00010348
41 *224:12 *1337:RN 4.67771e-06
42 *224:12 *1338:RN 0.000576901
43 *224:12 *281:52 0.00040626
44 *224:16 *1338:RN 5.3173e-06
45 *224:37 *1338:RN 0.000773876
46 *224:50 *1338:RN 0.000280513
47 *226:12 *1348:RN 0.000214771
48 *231:8 *1338:RN 0.00116501
49 *232:10 *1339:RN 3.12008e-05
50 *232:10 *281:52 0.00018897
51 *233:12 *1341:RN 6.85626e-05
52 *233:12 *281:18 0.000143487
53 *233:12 *281:52 0.000116055
54 *236:12 *281:102 0
55 *242:53 *281:39 0.00198164
56 *242:59 *1339:RN 0.000341151
57 *242:59 *281:52 7.16196e-05
58 *243:26 *281:102 1.19663e-05
59 *245:51 *281:113 0
60 *245:55 *281:113 3.70435e-05
61 *249:20 *1341:RN 0.00015941
62 *249:20 *281:33 0.000168962
63 *254:12 *281:102 0
64 *254:12 *281:113 0
65 *276:10 *281:16 6.18411e-06
66 *276:10 *281:94 5.77431e-06
67 *276:24 *281:16 1.51772e-05
68 *276:26 *281:16 9.6017e-06
69 *276:26 *281:18 3.10018e-05
*RES
1 *1369:Z *281:10 15.684 
2 *281:10 *281:16 15.108 
3 *281:16 *281:18 2.6 
4 *281:18 *1341:RN 13.368 
5 *281:18 *281:33 6.684 
6 *281:33 *281:39 14.304 
7 *281:39 *1339:RN 5.436 
8 *281:39 *281:52 12.196 
9 *281:52 *1338:RN 17.528 
10 *281:52 *1337:RN 9.312 
11 *281:33 *1340:RN 4.5 
12 *281:16 *1342:RN 9 
13 *281:10 *281:94 1.56 
14 *281:94 *281:102 23.712 
15 *281:102 *1346:RN 4.5 
16 *281:102 *281:113 19.476 
17 *281:113 *1348:RN 13.992 
18 *281:113 *1347:RN 9 
19 *281:94 *1343:RN 4.5 
*END

*D_NET *282 0.0256081
*CONN
*I *1327:SETN I *D gf180mcu_fd_sc_mcu7t5v0__dffsnq_1
*I *1325:SETN I *D gf180mcu_fd_sc_mcu7t5v0__dffsnq_1
*I *1326:SETN I *D gf180mcu_fd_sc_mcu7t5v0__dffsnq_1
*I *1330:SETN I *D gf180mcu_fd_sc_mcu7t5v0__dffsnq_1
*I *1328:SETN I *D gf180mcu_fd_sc_mcu7t5v0__dffsnq_1
*I *1329:SETN I *D gf180mcu_fd_sc_mcu7t5v0__dffsnq_1
*I *1335:RN I *D gf180mcu_fd_sc_mcu7t5v0__dffrnq_1
*I *1334:RN I *D gf180mcu_fd_sc_mcu7t5v0__dffrnq_1
*I *1345:RN I *D gf180mcu_fd_sc_mcu7t5v0__dffrnq_1
*I *1333:RN I *D gf180mcu_fd_sc_mcu7t5v0__dffrnq_1
*I *1370:Z O *D gf180mcu_fd_sc_mcu7t5v0__dlyb_1
*CAP
1 *1327:SETN 6.22726e-05
2 *1325:SETN 0.000533867
3 *1326:SETN 0
4 *1330:SETN 0.000973989
5 *1328:SETN 0.00029026
6 *1329:SETN 0
7 *1335:RN 0
8 *1334:RN 0
9 *1345:RN 0.000869241
10 *1333:RN 0
11 *1370:Z 0.000291303
12 *282:104 0.000973989
13 *282:102 0.00124666
14 *282:96 0.00102456
15 *282:81 0.0010087
16 *282:72 0.00153185
17 *282:59 0.00187855
18 *282:31 0.00128334
19 *282:23 0.00152801
20 *282:12 0.000589567
21 *282:12 *292:21 3.66949e-05
22 *282:23 *292:21 0.000391893
23 *282:31 *292:25 0.000115296
24 *1275:A1 *282:59 0
25 *1275:A2 *282:23 0
26 *1291:I1 *1325:SETN 0
27 *1292:I1 *1325:SETN 0.000656432
28 *1292:I1 *282:102 0.00143227
29 *1293:I0 *282:96 9.14625e-05
30 *1293:S *282:81 0
31 *1293:S *282:102 4.85468e-05
32 *1294:S *282:81 0.00011113
33 *1297:I0 *282:72 0
34 *1297:I1 *282:72 4.83913e-05
35 *1297:I1 *282:81 4.63309e-05
36 *1297:S *282:72 0.000509988
37 *1311:I1 *282:12 0
38 *1316:A4 *282:23 0.000259833
39 *1316:A4 *282:59 9.35542e-06
40 *1317:A1 *282:31 0.000447626
41 *1317:A1 *282:59 0
42 *1317:B *282:59 0
43 *1325:D *1325:SETN 0.000553376
44 *1325:CLK *1325:SETN 0
45 *1325:CLK *282:102 0
46 *1327:D *282:81 0.000888506
47 *1328:D *1328:SETN 6.03575e-05
48 *1334:D *1345:RN 0
49 *1334:D *282:31 0
50 *1335:CLK *1345:RN 0.000302189
51 *1368:I *1330:SETN 0
52 *1400:I *1325:SETN 0
53 *1401:I *1325:SETN 0.000438808
54 *1402:I *1330:SETN 0
55 *64:12 *282:31 1.51772e-05
56 *65:12 *282:59 0.000332968
57 *100:8 *282:31 0.000232318
58 *100:8 *282:59 0
59 *193:10 *282:59 0
60 *217:20 *282:23 0.000888506
61 *219:8 *282:59 8.31025e-05
62 *245:28 *282:102 2.81522e-06
63 *245:39 *1327:SETN 8.44565e-06
64 *245:39 *282:102 6.95257e-05
65 *245:41 *1328:SETN 0.000468812
66 *245:41 *282:96 0.00167108
67 *245:41 *282:102 0
68 *245:47 *1328:SETN 0.000116476
69 *266:10 *1325:SETN 5.05096e-05
70 *267:8 *1330:SETN 0
71 *267:23 *1325:SETN 0.000450565
72 *270:21 *282:81 0.000337769
73 *271:19 *1328:SETN 7.992e-05
74 *271:19 *282:81 0.000265442
*RES
1 *1370:Z *282:12 15.788 
2 *282:12 *1333:RN 4.5 
3 *282:12 *282:23 4.056 
4 *282:23 *282:31 8.972 
5 *282:31 *1345:RN 15.864 
6 *282:31 *1334:RN 9 
7 *282:23 *282:59 15.552 
8 *282:59 *1335:RN 4.5 
9 *282:59 *282:72 7.488 
10 *282:72 *1329:SETN 4.5 
11 *282:72 *282:81 10.22 
12 *282:81 *1328:SETN 11.912 
13 *282:81 *282:96 8.764 
14 *282:96 *282:102 11.364 
15 *282:102 *282:104 4.5 
16 *282:104 *1330:SETN 10.74 
17 *282:104 *1326:SETN 4.5 
18 *282:102 *1325:SETN 16.072 
19 *282:96 *1327:SETN 4.812 
*END

*D_NET *283 0.0245418
*CONN
*I *1336:RN I *D gf180mcu_fd_sc_mcu7t5v0__dffrnq_1
*I *1356:SETN I *D gf180mcu_fd_sc_mcu7t5v0__dffsnq_1
*I *1353:RN I *D gf180mcu_fd_sc_mcu7t5v0__dffrnq_1
*I *1355:SETN I *D gf180mcu_fd_sc_mcu7t5v0__dffsnq_1
*I *1344:RN I *D gf180mcu_fd_sc_mcu7t5v0__dffrnq_1
*I *1322:RN I *D gf180mcu_fd_sc_mcu7t5v0__dffrnq_1
*I *1321:RN I *D gf180mcu_fd_sc_mcu7t5v0__dffrnq_1
*I *1324:RN I *D gf180mcu_fd_sc_mcu7t5v0__dffrnq_1
*I *1323:RN I *D gf180mcu_fd_sc_mcu7t5v0__dffrnq_1
*I *1354:SETN I *D gf180mcu_fd_sc_mcu7t5v0__dffsnq_1
*I *1371:Z O *D gf180mcu_fd_sc_mcu7t5v0__dlyb_1
*CAP
1 *1336:RN 0.000364864
2 *1356:SETN 6.06099e-05
3 *1353:RN 0
4 *1355:SETN 3.6366e-05
5 *1344:RN 0.000478774
6 *1322:RN 0.000423886
7 *1321:RN 0
8 *1324:RN 0
9 *1323:RN 0.000214363
10 *1354:SETN 0.00105938
11 *1371:Z 4.32827e-05
12 *283:98 0.000633887
13 *283:64 0.00131934
14 *283:56 0.00111585
15 *283:54 0.00196737
16 *283:48 0.00296267
17 *283:41 0.00200336
18 *283:34 0.000921101
19 *283:10 0.00202056
20 *283:8 0.00115752
21 *1336:RN *284:31 0
22 *283:34 *1371:I 0.000240827
23 *283:41 *1371:I 0.000264692
24 *283:41 *284:6 4.44673e-06
25 *283:41 *284:10 0
26 *283:41 *284:31 0
27 *283:48 *284:31 0
28 *283:48 *291:8 4.67454e-05
29 *283:54 *294:10 1.01044e-05
30 *283:54 *295:12 0
31 *283:98 *284:31 0
32 err_parity_o *283:48 6.69436e-05
33 *1155:I *1354:SETN 0.000889951
34 *1168:A1 *283:56 0.000600498
35 *1168:A1 *283:64 2.24654e-05
36 *1168:A2 *283:54 0
37 *1264:A1 *1354:SETN 9.29362e-06
38 *1266:A1 *283:54 0.000746465
39 *1269:A1 *283:54 0
40 *1272:A1 *283:56 0
41 *1278:A1 *283:54 0.000344023
42 *1278:A2 *283:54 0.000427051
43 *1284:A2 *1322:RN 0
44 *1385:I *283:41 2.04597e-06
45 *1388:I *283:48 6.98206e-05
46 *1397:I *283:48 0.000259975
47 *42:14 *1323:RN 0
48 *42:61 *1322:RN 0
49 *42:61 *283:64 0
50 *43:8 *283:10 0.000196018
51 *43:8 *283:34 6.69767e-05
52 *43:14 *283:10 2.4505e-05
53 *85:8 *283:54 0.000180263
54 *99:8 *1354:SETN 3.3457e-05
55 *110:34 *283:56 0
56 *111:12 *283:54 3.01776e-05
57 *111:12 *283:56 0.0002623
58 *152:12 *283:54 0
59 *237:10 *1344:RN 0
60 *240:10 *283:54 9.33122e-05
61 *240:32 *283:54 0.00010871
62 *240:45 *283:54 0.000248836
63 *240:58 *283:54 0.000226412
64 *253:12 *1336:RN 0.000178559
65 *256:10 *283:10 0.00038183
66 *256:10 *283:34 0.000178877
67 *256:12 *283:10 0.000308093
68 *256:16 *1354:SETN 0.000792034
69 *256:16 *283:10 0.000442938
*RES
1 *1371:Z *283:8 9.312 
2 *283:8 *283:10 7.8 
3 *283:10 *1354:SETN 19.296 
4 *283:10 *1323:RN 10.144 
5 *283:8 *283:34 8.036 
6 *283:34 *1324:RN 4.5 
7 *283:34 *283:41 3.848 
8 *283:41 *1321:RN 4.5 
9 *283:41 *283:48 11.128 
10 *283:48 *283:54 23.248 
11 *283:54 *283:56 6.344 
12 *283:56 *283:64 2.912 
13 *283:64 *1322:RN 7.308 
14 *283:64 *1344:RN 17.556 
15 *283:56 *1355:SETN 4.812 
16 *283:54 *1353:RN 4.5 
17 *283:48 *283:98 1.456 
18 *283:98 *1356:SETN 5.02 
19 *283:98 *1336:RN 7.1 
*END

*D_NET *284 0.0448931
*CONN
*I *1371:I I *D gf180mcu_fd_sc_mcu7t5v0__dlyb_1
*I *1331:SETN I *D gf180mcu_fd_sc_mcu7t5v0__dffsnq_1
*I *1349:RN I *D gf180mcu_fd_sc_mcu7t5v0__dffrnq_1
*I *1350:RN I *D gf180mcu_fd_sc_mcu7t5v0__dffrnq_1
*I *1351:RN I *D gf180mcu_fd_sc_mcu7t5v0__dffrnq_1
*I *1352:RN I *D gf180mcu_fd_sc_mcu7t5v0__dffrnq_1
*I *1332:SETN I *D gf180mcu_fd_sc_mcu7t5v0__dffsnq_1
*I *1370:I I *D gf180mcu_fd_sc_mcu7t5v0__dlyb_1
*I *1369:I I *D gf180mcu_fd_sc_mcu7t5v0__dlyb_1
*I *1372:Z O *D gf180mcu_fd_sc_mcu7t5v0__dlyb_1
*CAP
1 *1371:I 0.000451133
2 *1331:SETN 0.000285726
3 *1349:RN 0.000828829
4 *1350:RN 0
5 *1351:RN 0.000440499
6 *1352:RN 0.000502583
7 *1332:SETN 0
8 *1370:I 0.000882851
9 *1369:I 0.00169218
10 *1372:Z 1.86731e-05
11 *284:75 0.00139809
12 *284:71 0.000527242
13 *284:67 0.00410962
14 *284:61 0.00421587
15 *284:48 0.00143606
16 *284:31 0.0037286
17 *284:10 0.00417458
18 *284:6 0.000820932
19 *1370:I *290:8 0
20 *284:31 *1270:A1 0.000243318
21 *284:48 *290:8 0
22 *1167:A1 *1369:I 0.000107033
23 *1214:A2 *284:31 0.000372741
24 *1216:A1 *284:31 0.000453164
25 *1241:A1 *284:67 0.000121341
26 *1248:A1 *284:67 2.57828e-05
27 *1248:A3 *284:67 0
28 *1249:A2 *284:67 0
29 *1255:A2 *284:75 0
30 *1270:A2 *284:31 0
31 *1277:A1 *1370:I 1.60338e-05
32 *1281:A1 *1369:I 0.000235458
33 *1283:A2 *1369:I 0
34 *1284:A2 *1369:I 3.93803e-05
35 *1284:B *1369:I 0.000302264
36 *1285:I0 *1369:I 4.04741e-05
37 *1291:S *284:48 8.16884e-06
38 *1291:S *284:61 0.000605048
39 *1296:A3 *284:67 0
40 *1297:I0 *284:67 0.000191415
41 *1300:A2 *1331:SETN 0
42 *1300:A2 *284:67 0
43 *1303:A2 *284:61 0
44 *1304:C *284:61 0.000210302
45 *1305:A2 *1331:SETN 0
46 *1305:A2 *284:67 0
47 *1306:B *284:61 0.000194522
48 *1308:A1 *284:48 4.91701e-05
49 *1311:I1 *1370:I 0
50 *1320:A2 *284:31 0
51 *1321:D *1369:I 0.000135844
52 *1321:D *284:31 0
53 *1329:D *284:67 0
54 *1331:D *284:67 0
55 *1331:CLK *284:67 0.00197876
56 *1336:RN *284:31 0
57 *1348:CLK *1349:RN 0
58 *1355:D *1369:I 4.21153e-05
59 *1367:I *1370:I 0.000809422
60 *1372:I *1371:I 0.00111869
61 *1385:I *1371:I 0
62 *1385:I *284:10 0.000113027
63 *1396:I *1369:I 0.000623091
64 *1396:I *1371:I 3.21875e-05
65 *1397:I *284:31 0.000398245
66 *1399:I *284:31 0.000346997
67 *1405:I *284:67 0
68 *1406:I *1331:SETN 2.38656e-05
69 *1406:I *284:61 5.77419e-05
70 *1407:I *284:61 0.000237629
71 *1408:I *284:31 3.17395e-05
72 *41:8 *1369:I 9.57756e-06
73 *41:55 *1369:I 0.000107043
74 *110:10 *1369:I 0.000274482
75 *178:8 *284:67 0
76 *182:12 *1349:RN 8.08804e-05
77 *182:12 *284:75 0
78 *182:14 *284:75 0
79 *197:16 *1369:I 9.95141e-05
80 *205:10 *1370:I 0.000835855
81 *225:16 *284:67 0.000149969
82 *225:18 *284:67 9.76261e-05
83 *225:24 *1352:RN 5.12872e-06
84 *226:22 *284:67 0.000124413
85 *227:6 *1349:RN 0
86 *227:21 *284:67 0.000165539
87 *227:21 *284:71 7.53596e-05
88 *227:21 *284:75 0.000195459
89 *238:12 *284:67 0.000172547
90 *238:20 *284:67 0.00286518
91 *238:35 *284:67 0.000775837
92 *243:71 *284:67 0.00144174
93 *243:71 *284:71 3.52832e-05
94 *243:71 *284:75 0.000864546
95 *243:75 *284:75 3.76797e-05
96 *243:112 *1351:RN 0.000383327
97 *243:112 *1352:RN 7.77163e-05
98 *246:8 *284:61 0.000397954
99 *253:12 *284:31 3.99408e-05
100 *272:10 *284:67 0
101 *273:10 *1331:SETN 0
102 *274:21 *284:48 4.63426e-05
103 *274:21 *284:61 0.000103933
104 *278:8 *1370:I 0.000176597
105 *278:12 *1370:I 6.52129e-05
106 *283:34 *1371:I 0.000240827
107 *283:41 *1371:I 0.000264692
108 *283:41 *284:6 4.44673e-06
109 *283:41 *284:10 0
110 *283:41 *284:31 0
111 *283:48 *284:31 0
112 *283:98 *284:31 0
*RES
1 *1372:Z *284:6 4.708 
2 *284:6 *284:10 2.392 
3 *284:10 *1369:I 30.14 
4 *284:10 *284:31 22.076 
5 *284:31 *1370:I 17.944 
6 *284:31 *284:48 9.492 
7 *284:48 *1332:SETN 4.5 
8 *284:48 *284:61 12.716 
9 *284:61 *284:67 36.92 
10 *284:67 *284:71 1.04 
11 *284:71 *284:75 10.22 
12 *284:75 *1352:RN 7.932 
13 *284:75 *1351:RN 8.244 
14 *284:71 *1350:RN 9 
15 *284:67 *1349:RN 14.304 
16 *284:61 *1331:SETN 11.08 
17 *284:6 *1371:I 19.116 
*END

*D_NET *285 0.00858705
*CONN
*I *1179:A1 I *D gf180mcu_fd_sc_mcu7t5v0__xor2_1
*I *1189:A1 I *D gf180mcu_fd_sc_mcu7t5v0__xor2_1
*I *1391:Z O *D gf180mcu_fd_sc_mcu7t5v0__dlyb_1
*CAP
1 *1179:A1 0.00108329
2 *1189:A1 4.56529e-05
3 *1391:Z 0.000155933
4 *285:10 0.00128487
5 *1179:A1 *289:10 1.06742e-05
6 *1189:A1 *1193:A1 0.000182219
7 *285:10 *289:10 0.000131382
8 *1171:A2 *1179:A1 0
9 *1178:A2 *1179:A1 0
10 *1179:A2 *1179:A1 0.00140374
11 *1183:A2 *1179:A1 0.000214107
12 *1189:A2 *1189:A1 2.38773e-05
13 *1198:A1 *1179:A1 0
14 *1198:A1 *285:10 0
15 *1200:A1 *1179:A1 0.00032044
16 *1200:A1 *1189:A1 5.63044e-06
17 *1200:A1 *285:10 0.000358225
18 *1200:A3 *285:10 2.38773e-05
19 *1201:A1 *1179:A1 0.000853491
20 *1201:A3 *1179:A1 0.000652201
21 *1201:A4 *1179:A1 2.41368e-05
22 *1204:B1 *1179:A1 1.23682e-05
23 *91:10 *1179:A1 0
24 *226:34 *1179:A1 0.00167346
25 *241:21 *1179:A1 7.60808e-05
26 *248:14 *285:10 5.13977e-05
*RES
1 *1391:Z *285:10 11.08 
2 *285:10 *1189:A1 9.52 
3 *285:10 *1179:A1 23.352 
*END

*D_NET *286 0.00372613
*CONN
*I *1173:A1 I *D gf180mcu_fd_sc_mcu7t5v0__xor2_1
*I *1153:I I *D gf180mcu_fd_sc_mcu7t5v0__clkinv_1
*I *1392:Z O *D gf180mcu_fd_sc_mcu7t5v0__dlyb_1
*CAP
1 *1173:A1 0.000217664
2 *1153:I 0
3 *1392:Z 0.000724874
4 *286:10 0.000942539
5 *286:10 *1197:A1 0
6 *286:10 *288:10 0
7 *1198:A1 *286:10 0.000113458
8 *230:32 *1173:A1 0.000236741
9 *279:18 *286:10 0.00149085
*RES
1 *1392:Z *286:10 19.428 
2 *286:10 *1153:I 4.5 
3 *286:10 *1173:A1 6.268 
*END

*D_NET *287 0.00196289
*CONN
*I *1191:A1 I *D gf180mcu_fd_sc_mcu7t5v0__xor2_1
*I *1169:A1 I *D gf180mcu_fd_sc_mcu7t5v0__xor2_1
*I *1393:Z O *D gf180mcu_fd_sc_mcu7t5v0__dlyb_1
*CAP
1 *1191:A1 5.75752e-05
2 *1169:A1 0
3 *1393:Z 0.000422787
4 *287:12 0.000480362
5 *287:12 *1197:A1 0
6 *1191:A2 *1191:A1 0.000231712
7 *1191:A2 *287:12 1.23478e-05
8 *1197:A2 *1191:A1 1.28023e-05
9 *225:24 *287:12 0
10 *230:32 *287:12 0
11 *255:14 *1191:A1 0.000334616
12 *255:14 *287:12 0.000410691
*RES
1 *1393:Z *287:12 12.432 
2 *287:12 *1169:A1 9 
3 *287:12 *1191:A1 10.976 
*END

*D_NET *288 0.00466586
*CONN
*I *1197:A1 I *D gf180mcu_fd_sc_mcu7t5v0__xor2_1
*I *1175:A1 I *D gf180mcu_fd_sc_mcu7t5v0__xor2_1
*I *1394:Z O *D gf180mcu_fd_sc_mcu7t5v0__dlyb_1
*CAP
1 *1197:A1 0.00100912
2 *1175:A1 8.01169e-05
3 *1394:Z 0.00020407
4 *288:10 0.0012933
5 *1151:I *1197:A1 8.77606e-06
6 *1189:A2 *1175:A1 0.00019377
7 *1191:A2 *1197:A1 1.28023e-05
8 *1197:A2 *1197:A1 0.00041929
9 *1198:B2 *1197:A1 7.18709e-05
10 *1206:A1 *1197:A1 0.000113027
11 *1393:I *288:10 3.38238e-06
12 *1394:I *288:10 0
13 *229:27 *288:10 1.26446e-05
14 *255:14 *1197:A1 0
15 *279:12 *1197:A1 0.00019118
16 *279:12 *288:10 0.00071635
17 *279:18 *1175:A1 0.00019377
18 *279:18 *1197:A1 0.000142394
19 *286:10 *1197:A1 0
20 *286:10 *288:10 0
21 *287:12 *1197:A1 0
*RES
1 *1394:Z *288:10 11.288 
2 *288:10 *1175:A1 10.352 
3 *288:10 *1197:A1 17.736 
*END

*D_NET *289 0.00247046
*CONN
*I *1193:A1 I *D gf180mcu_fd_sc_mcu7t5v0__xor2_1
*I *1183:A1 I *D gf180mcu_fd_sc_mcu7t5v0__xnor2_1
*I *1395:Z O *D gf180mcu_fd_sc_mcu7t5v0__dlyb_1
*CAP
1 *1193:A1 0.00018051
2 *1183:A1 2.47476e-05
3 *1395:Z 0.000230768
4 *289:10 0.000436025
5 *1177:A3 *1183:A1 0.000113016
6 *1177:A3 *1193:A1 0.00101768
7 *1179:A1 *289:10 1.06742e-05
8 *1189:A1 *1193:A1 0.000182219
9 *1189:A2 *1193:A1 8.7794e-05
10 *1200:A1 *1183:A1 1.19584e-05
11 *1200:A1 *1193:A1 2.54509e-05
12 *1201:A4 *289:10 1.823e-05
13 *252:12 *289:10 0
14 *285:10 *289:10 0.000131382
*RES
1 *1395:Z *289:10 15.476 
2 *289:10 *1183:A1 4.812 
3 *289:10 *1193:A1 7.308 
*END

*D_NET *290 0.00411634
*CONN
*I *1319:A1 I *D gf180mcu_fd_sc_mcu7t5v0__nand3_1
*I *1267:A2 I *D gf180mcu_fd_sc_mcu7t5v0__xor2_1
*I *1336:Q O *D gf180mcu_fd_sc_mcu7t5v0__dffrnq_1
*CAP
1 *1319:A1 0.000298446
2 *1267:A2 0.000158103
3 *1336:Q 0.000670002
4 *290:8 0.00112655
5 *1311:I1 *1267:A2 0.000602924
6 *1320:A2 *1319:A1 4.84242e-05
7 *1320:B *1319:A1 0.000779348
8 *1370:I *290:8 0
9 *253:12 *1267:A2 0.000111223
10 *253:12 *290:8 0.00024698
11 *278:8 *290:8 4.38041e-05
12 *278:12 *1267:A2 8.77606e-06
13 *278:12 *290:8 2.17529e-05
14 *284:48 *290:8 0
*RES
1 *1336:Q *290:8 14.72 
2 *290:8 *1267:A2 10.976 
3 *290:8 *1319:A1 11.704 
*END

*D_NET *291 0.00493311
*CONN
*I *1154:I I *D gf180mcu_fd_sc_mcu7t5v0__clkinv_1
*I *1270:A1 I *D gf180mcu_fd_sc_mcu7t5v0__oai21_1
*I *1213:A1 I *D gf180mcu_fd_sc_mcu7t5v0__nor2_1
*I *1215:A1 I *D gf180mcu_fd_sc_mcu7t5v0__nor3_1
*I *1321:Q O *D gf180mcu_fd_sc_mcu7t5v0__dffrnq_1
*CAP
1 *1154:I 0.000119655
2 *1270:A1 0.000228765
3 *1213:A1 0
4 *1215:A1 0
5 *1321:Q 0.000293757
6 *291:21 0.000321293
7 *291:14 0.000488921
8 *291:8 0.000809805
9 err_overflow_o *1154:I 1.76416e-05
10 err_overflow_o *291:8 0.000139032
11 *1214:A1 *291:14 3.10787e-05
12 *1214:A1 *291:21 4.18042e-05
13 *1214:A2 *1270:A1 7.87395e-06
14 *1214:A2 *291:21 6.51039e-05
15 *1215:A2 *291:14 6.17392e-05
16 *1216:A1 *1154:I 9.0311e-05
17 *1216:A1 *291:14 0.000264223
18 *1266:A2 *1270:A1 0
19 *1271:I *1270:A1 0.000466783
20 *1271:I *291:14 0.000122244
21 *1271:I *291:21 0.000607646
22 *1388:I *291:8 1.07369e-05
23 *1398:I *291:14 0.00015192
24 *1408:I *1270:A1 4.07478e-05
25 *1408:I *291:14 0
26 *1408:I *291:21 0.000203739
27 *261:8 *291:14 5.82251e-05
28 *283:48 *291:8 4.67454e-05
29 *284:31 *1270:A1 0.000243318
*RES
1 *1321:Q *291:8 11.392 
2 *291:8 *291:14 8.66 
3 *291:14 *1215:A1 4.5 
4 *291:14 *291:21 1.768 
5 *291:21 *1213:A1 4.5 
6 *291:21 *1270:A1 7.724 
7 *291:8 *1154:I 10.144 
*END

*D_NET *292 0.00664644
*CONN
*I *1274:A2 I *D gf180mcu_fd_sc_mcu7t5v0__xnor2_1
*I *1312:A1 I *D gf180mcu_fd_sc_mcu7t5v0__nand2_1
*I *1316:A1 I *D gf180mcu_fd_sc_mcu7t5v0__nand4_1
*I *1314:A1 I *D gf180mcu_fd_sc_mcu7t5v0__aoi21_1
*I *1311:S I *D gf180mcu_fd_sc_mcu7t5v0__mux2_2
*I *1333:Q O *D gf180mcu_fd_sc_mcu7t5v0__dffrnq_1
*CAP
1 *1274:A2 0.000161212
2 *1312:A1 0
3 *1316:A1 0.000113851
4 *1314:A1 3.77699e-05
5 *1311:S 0.000168515
6 *1333:Q 0.000130016
7 *292:41 0.000261617
8 *292:25 0.000351772
9 *292:21 0.00068123
10 *292:8 0.000679205
11 *1273:A2 *1274:A2 0.000417612
12 *1273:A2 *292:41 0.000125283
13 *1275:A2 *1274:A2 0.000322679
14 *1275:A2 *292:41 9.11499e-05
15 *1277:A1 *1274:A2 1.15684e-05
16 *1311:I0 *1311:S 6.18411e-06
17 *1311:I0 *292:8 3.71046e-05
18 *1313:A1 *1274:A2 0.000194522
19 *1313:A2 *1274:A2 0.000210641
20 *1316:A2 *1314:A1 3.22108e-05
21 *1316:A2 *1316:A1 0.000125251
22 *1316:A4 *1316:A1 2.39156e-06
23 *64:6 *1314:A1 1.12327e-05
24 *64:6 *1316:A1 7.02352e-05
25 *64:12 *1314:A1 2.38773e-05
26 *64:12 *292:25 0.00019118
27 *64:23 *292:25 0.000657053
28 *64:23 *292:41 0.000748772
29 *100:8 *292:25 3.37878e-06
30 *100:8 *292:41 1.18566e-06
31 *193:10 *1274:A2 8.35178e-06
32 *217:20 *1311:S 0.000124466
33 *217:20 *292:21 9.86485e-05
34 *241:77 *1316:A1 2.39156e-06
35 *282:12 *292:21 3.66949e-05
36 *282:23 *292:21 0.000391893
37 *282:31 *292:25 0.000115296
*RES
1 *1333:Q *292:8 5.54 
2 *292:8 *1311:S 5.748 
3 *292:8 *292:21 8.348 
4 *292:21 *292:25 6.684 
5 *292:25 *1314:A1 4.812 
6 *292:25 *1316:A1 5.644 
7 *292:21 *292:41 2.184 
8 *292:41 *1312:A1 9 
9 *292:41 *1274:A2 11.496 
*END

*D_NET *293 0.00052105
*CONN
*I *1265:A2 I *D gf180mcu_fd_sc_mcu7t5v0__or2_1
*I *1354:Q O *D gf180mcu_fd_sc_mcu7t5v0__dffsnq_1
*CAP
1 *1265:A2 0.000244832
2 *1354:Q 0.000244832
3 *1155:I *1265:A2 3.13856e-05
*RES
1 *1354:Q *1265:A2 10.664 
*END

*D_NET *294 0.00474958
*CONN
*I *1141:I I *D gf180mcu_fd_sc_mcu7t5v0__clkinv_1
*I *1165:A2 I *D gf180mcu_fd_sc_mcu7t5v0__nor2_1
*I *1355:Q O *D gf180mcu_fd_sc_mcu7t5v0__dffsnq_1
*CAP
1 *1141:I 0.000111466
2 *1165:A2 0.000250531
3 *1355:Q 0.000491843
4 *294:10 0.00085384
5 *1165:A1 *1165:A2 1.71326e-05
6 *1269:A1 *1141:I 9.89981e-05
7 *1269:A1 *294:10 0.000202022
8 *1272:A1 *294:10 0.00173015
9 *1278:A1 *1141:I 5.4959e-05
10 *1278:A1 *294:10 8.1795e-05
11 *1278:A2 *1165:A2 0.000316249
12 *1278:B1 *294:10 0.000105697
13 *1279:A2 *1165:A2 4.4504e-06
14 *152:8 *294:10 0.000146714
15 *194:19 *1141:I 9.48851e-05
16 *194:19 *1165:A2 4.7868e-06
17 *197:16 *1165:A2 0.000115234
18 *197:16 *294:10 5.87216e-05
19 *283:54 *294:10 1.01044e-05
*RES
1 *1355:Q *294:10 15.656 
2 *294:10 *1165:A2 11.184 
3 *294:10 *1141:I 10.664 
*END

*D_NET *295 0.0154376
*CONN
*I *1298:A1 I *D gf180mcu_fd_sc_mcu7t5v0__nand2_1
*I *1304:A1 I *D gf180mcu_fd_sc_mcu7t5v0__oai211_1
*I *1307:A1 I *D gf180mcu_fd_sc_mcu7t5v0__nand3_1
*I *1140:I I *D gf180mcu_fd_sc_mcu7t5v0__clkinv_1
*I *1166:A2 I *D gf180mcu_fd_sc_mcu7t5v0__nand4_1
*I *1356:Q O *D gf180mcu_fd_sc_mcu7t5v0__dffsnq_1
*CAP
1 *1298:A1 0
2 *1304:A1 0
3 *1307:A1 0.000549507
4 *1140:I 0
5 *1166:A2 0.000506025
6 *1356:Q 0.000987507
7 *295:36 0.000682431
8 *295:30 0.000528163
9 *295:23 0.000978028
10 *295:12 0.00207632
11 *1267:A1 *295:23 0.000980785
12 *1278:A1 *1166:A2 0
13 *1291:S *1307:A1 0.000381156
14 *1300:A2 *295:36 8.25022e-05
15 *1304:B *1307:A1 3.4596e-05
16 *1320:A1 *295:12 0
17 *1332:CLK *295:23 9.06182e-05
18 *1368:I *295:23 0.00167144
19 *1368:I *295:30 0.00165913
20 *84:26 *295:23 2.39167e-05
21 *186:10 *295:12 0
22 *186:10 *295:23 0.000124022
23 *194:19 *1166:A2 0
24 *205:10 *1166:A2 0
25 *205:10 *295:23 0
26 *240:58 *1166:A2 0.000366224
27 *240:66 *1166:A2 0.000569975
28 *244:67 *295:12 2.2764e-05
29 *244:69 *1166:A2 1.09486e-05
30 *244:69 *295:12 1.04703e-05
31 *244:69 *295:23 6.60296e-05
32 *244:78 *1166:A2 0
33 *244:107 *295:23 2.11015e-05
34 *246:10 *295:36 0.000199988
35 *246:12 *295:36 0.000784655
36 *246:14 *295:36 0.000835855
37 *253:12 *295:12 0
38 *257:14 *295:36 0.00119345
39 *283:54 *295:12 0
*RES
1 *1356:Q *295:12 21.404 
2 *295:12 *1166:A2 8.66 
3 *295:12 *295:23 8.424 
4 *295:23 *1140:I 4.5 
5 *295:23 *295:30 4.472 
6 *295:30 *295:36 13.472 
7 *295:36 *1307:A1 18.284 
8 *295:36 *1304:A1 4.5 
9 *295:30 *1298:A1 4.5 
*END
