*SPEF "ieee 1481-1999"
*DESIGN "udma_uart_tx"
*DATE "16:53:00 Saturday July 25, 2026"
*VENDOR "The OpenROAD Project"
*PROGRAM "OpenROAD"
*VERSION "dcf36133a369abc8f3c5e5738cd4d82e4903c0e0"
*DESIGN_FLOW "NAME_SCOPE LOCAL" "PIN_CAP NONE"
*DIVIDER /
*DELIMITER :
*BUS_DELIMITER []
*T_UNIT 1 NS
*C_UNIT 1 PF
*R_UNIT 1 OHM
*L_UNIT 1 HENRY

*NAME_MAP
*3 busy_o
*4 cfg_bits_i[0]
*5 cfg_bits_i[1]
*6 cfg_div_i[0]
*7 cfg_div_i[10]
*8 cfg_div_i[11]
*9 cfg_div_i[12]
*10 cfg_div_i[13]
*11 cfg_div_i[14]
*12 cfg_div_i[15]
*13 cfg_div_i[1]
*14 cfg_div_i[2]
*15 cfg_div_i[3]
*16 cfg_div_i[4]
*17 cfg_div_i[5]
*18 cfg_div_i[6]
*19 cfg_div_i[7]
*20 cfg_div_i[8]
*21 cfg_div_i[9]
*22 cfg_en_i
*23 cfg_parity_en_i
*24 cfg_stop_bits_i
*25 clk_i
*26 rstn_i
*27 tx_data_i[0]
*28 tx_data_i[1]
*29 tx_data_i[2]
*30 tx_data_i[3]
*31 tx_data_i[4]
*32 tx_data_i[5]
*33 tx_data_i[6]
*34 tx_data_i[7]
*35 tx_o
*36 tx_ready_o
*37 tx_valid_i
*38 CS\[0\]
*39 CS\[1\]
*40 CS\[2\]
*41 _000_
*42 _001_
*43 _002_
*44 _003_
*45 _004_
*46 _005_
*47 _006_
*48 _007_
*49 _008_
*50 _009_
*51 _010_
*52 _011_
*53 _012_
*54 _013_
*55 _014_
*56 _015_
*57 _016_
*58 _017_
*59 _018_
*60 _019_
*61 _020_
*62 _021_
*63 _022_
*64 _023_
*65 _024_
*66 _025_
*67 _026_
*68 _027_
*69 _028_
*70 _029_
*71 _030_
*72 _031_
*73 _032_
*74 _033_
*75 _034_
*76 _035_
*77 _036_
*78 _037_
*79 _038_
*80 _039_
*81 _040_
*82 _041_
*83 _042_
*84 _043_
*85 _044_
*86 _045_
*87 _046_
*88 _047_
*89 _048_
*90 _049_
*91 _050_
*92 _051_
*93 _052_
*94 _053_
*95 _054_
*96 _055_
*97 _056_
*98 _057_
*99 _058_
*100 _059_
*101 _060_
*102 _061_
*103 _062_
*104 _063_
*105 _064_
*106 _065_
*107 _066_
*108 _067_
*109 _068_
*110 _069_
*111 _070_
*112 _071_
*113 _072_
*114 _073_
*115 _074_
*116 _075_
*117 _076_
*118 _077_
*119 _078_
*120 _079_
*121 _080_
*122 _081_
*123 _082_
*124 _083_
*125 _084_
*126 _085_
*127 _086_
*128 _087_
*129 _088_
*130 _089_
*131 _090_
*132 _091_
*133 _092_
*134 _093_
*135 _094_
*136 _095_
*137 _096_
*138 _097_
*139 _098_
*140 _099_
*141 _100_
*142 _101_
*143 _102_
*144 _103_
*145 _104_
*146 _105_
*147 _106_
*148 _107_
*149 _108_
*150 _109_
*151 _110_
*152 _111_
*153 _112_
*154 _113_
*155 _114_
*156 _115_
*157 _116_
*158 _117_
*159 _118_
*160 _119_
*161 _120_
*162 _121_
*163 _122_
*164 _123_
*165 _124_
*166 _125_
*167 _126_
*168 _127_
*169 _128_
*170 _129_
*171 _130_
*172 _131_
*173 _132_
*174 _133_
*175 _134_
*176 _135_
*177 _136_
*178 _137_
*179 baud_cnt\[0\]
*180 baud_cnt\[10\]
*181 baud_cnt\[11\]
*182 baud_cnt\[12\]
*183 baud_cnt\[13\]
*184 baud_cnt\[14\]
*185 baud_cnt\[15\]
*186 baud_cnt\[1\]
*187 baud_cnt\[2\]
*188 baud_cnt\[3\]
*189 baud_cnt\[4\]
*190 baud_cnt\[5\]
*191 baud_cnt\[6\]
*192 baud_cnt\[7\]
*193 baud_cnt\[8\]
*194 baud_cnt\[9\]
*195 bit_done
*196 clknet_0_clk_i
*197 clknet_2_0__leaf_clk_i
*198 clknet_2_1__leaf_clk_i
*199 clknet_2_2__leaf_clk_i
*200 clknet_2_3__leaf_clk_i
*201 net1
*202 net10
*203 net11
*204 net12
*205 net13
*206 net14
*207 net15
*208 net16
*209 net17
*210 net18
*211 net19
*212 net2
*213 net20
*214 net21
*215 net22
*216 net23
*217 net24
*218 net25
*219 net26
*220 net27
*221 net28
*222 net29
*223 net3
*224 net30
*225 net31
*226 net32
*227 net33
*228 net34
*229 net35
*230 net36
*231 net37
*232 net38
*233 net39
*234 net4
*235 net40
*236 net41
*237 net42
*238 net43
*239 net44
*240 net45
*241 net46
*242 net5
*243 net6
*244 net7
*245 net8
*246 net9
*247 parity_bit
*248 reg_bit_count\[0\]
*249 reg_bit_count\[1\]
*250 reg_data\[0\]
*251 reg_data\[1\]
*252 reg_data\[2\]
*253 reg_data\[3\]
*254 reg_data\[4\]
*255 reg_data\[5\]
*256 reg_data\[6\]
*257 reg_data\[7\]
*258 FILLER_0_104
*259 FILLER_0_106
*260 FILLER_0_123
*261 FILLER_0_131
*262 FILLER_0_135
*263 FILLER_0_172
*264 FILLER_0_2
*265 FILLER_0_206
*266 FILLER_0_222
*267 FILLER_0_230
*268 FILLER_0_36
*269 FILLER_0_70
*270 FILLER_10_107
*271 FILLER_10_173
*272 FILLER_10_177
*273 FILLER_10_18
*274 FILLER_10_185
*275 FILLER_10_189
*276 FILLER_10_2
*277 FILLER_10_28
*278 FILLER_10_32
*279 FILLER_10_34
*280 FILLER_10_37
*281 FILLER_10_53
*282 FILLER_10_89
*283 FILLER_11_10
*284 FILLER_11_128
*285 FILLER_11_136
*286 FILLER_11_14
*287 FILLER_11_142
*288 FILLER_11_163
*289 FILLER_11_195
*290 FILLER_11_2
*291 FILLER_11_212
*292 FILLER_11_49
*293 FILLER_11_65
*294 FILLER_11_69
*295 FILLER_11_72
*296 FILLER_11_76
*297 FILLER_12_107
*298 FILLER_12_123
*299 FILLER_12_125
*300 FILLER_12_162
*301 FILLER_12_170
*302 FILLER_12_174
*303 FILLER_12_177
*304 FILLER_12_209
*305 FILLER_12_225
*306 FILLER_12_229
*307 FILLER_12_231
*308 FILLER_12_30
*309 FILLER_12_34
*310 FILLER_12_37
*311 FILLER_12_53
*312 FILLER_12_61
*313 FILLER_13_10
*314 FILLER_13_128
*315 FILLER_13_136
*316 FILLER_13_142
*317 FILLER_13_174
*318 FILLER_13_190
*319 FILLER_13_2
*320 FILLER_13_204
*321 FILLER_13_208
*322 FILLER_13_212
*323 FILLER_13_228
*324 FILLER_13_46
*325 FILLER_13_72
*326 FILLER_13_74
*327 FILLER_13_91
*328 FILLER_13_93
*329 FILLER_14_102
*330 FILLER_14_104
*331 FILLER_14_107
*332 FILLER_14_171
*333 FILLER_14_177
*334 FILLER_14_185
*335 FILLER_14_187
*336 FILLER_14_209
*337 FILLER_14_213
*338 FILLER_14_215
*339 FILLER_14_34
*340 FILLER_14_43
*341 FILLER_14_59
*342 FILLER_14_67
*343 FILLER_14_77
*344 FILLER_15_10
*345 FILLER_15_103
*346 FILLER_15_12
*347 FILLER_15_135
*348 FILLER_15_139
*349 FILLER_15_142
*350 FILLER_15_158
*351 FILLER_15_166
*352 FILLER_15_170
*353 FILLER_15_2
*354 FILLER_15_212
*355 FILLER_15_228
*356 FILLER_15_47
*357 FILLER_15_63
*358 FILLER_15_67
*359 FILLER_15_69
*360 FILLER_15_72
*361 FILLER_15_76
*362 FILLER_15_87
*363 FILLER_15_95
*364 FILLER_16_107
*365 FILLER_16_171
*366 FILLER_16_177
*367 FILLER_16_18
*368 FILLER_16_185
*369 FILLER_16_189
*370 FILLER_16_191
*371 FILLER_16_217
*372 FILLER_16_225
*373 FILLER_16_229
*374 FILLER_16_231
*375 FILLER_16_53
*376 FILLER_16_61
*377 FILLER_16_65
*378 FILLER_17_142
*379 FILLER_17_158
*380 FILLER_17_166
*381 FILLER_17_170
*382 FILLER_17_184
*383 FILLER_17_192
*384 FILLER_17_203
*385 FILLER_17_221
*386 FILLER_17_229
*387 FILLER_17_231
*388 FILLER_17_40
*389 FILLER_17_56
*390 FILLER_17_64
*391 FILLER_17_68
*392 FILLER_17_72
*393 FILLER_17_88
*394 FILLER_18_100
*395 FILLER_18_104
*396 FILLER_18_107
*397 FILLER_18_123
*398 FILLER_18_127
*399 FILLER_18_163
*400 FILLER_18_185
*401 FILLER_18_201
*402 FILLER_18_211
*403 FILLER_18_215
*404 FILLER_18_30
*405 FILLER_18_34
*406 FILLER_18_37
*407 FILLER_18_44
*408 FILLER_18_76
*409 FILLER_18_92
*410 FILLER_19_109
*411 FILLER_19_117
*412 FILLER_19_121
*413 FILLER_19_138
*414 FILLER_19_142
*415 FILLER_19_189
*416 FILLER_19_197
*417 FILLER_19_203
*418 FILLER_19_207
*419 FILLER_19_209
*420 FILLER_19_212
*421 FILLER_19_228
*422 FILLER_19_30
*423 FILLER_19_32
*424 FILLER_19_47
*425 FILLER_19_63
*426 FILLER_19_67
*427 FILLER_19_69
*428 FILLER_19_72
*429 FILLER_19_74
*430 FILLER_19_97
*431 FILLER_19_99
*432 FILLER_1_115
*433 FILLER_1_123
*434 FILLER_1_174
*435 FILLER_1_2
*436 FILLER_1_206
*437 FILLER_1_212
*438 FILLER_1_66
*439 FILLER_1_72
*440 FILLER_1_80
*441 FILLER_20_104
*442 FILLER_20_107
*443 FILLER_20_109
*444 FILLER_20_150
*445 FILLER_20_166
*446 FILLER_20_174
*447 FILLER_20_197
*448 FILLER_20_199
*449 FILLER_20_207
*450 FILLER_20_223
*451 FILLER_20_231
*452 FILLER_20_30
*453 FILLER_20_34
*454 FILLER_20_50
*455 FILLER_20_64
*456 FILLER_20_68
*457 FILLER_21_103
*458 FILLER_21_132
*459 FILLER_21_142
*460 FILLER_21_174
*461 FILLER_21_18
*462 FILLER_21_186
*463 FILLER_21_194
*464 FILLER_21_196
*465 FILLER_21_204
*466 FILLER_21_208
*467 FILLER_21_218
*468 FILLER_21_22
*469 FILLER_21_226
*470 FILLER_21_230
*471 FILLER_21_57
*472 FILLER_21_65
*473 FILLER_21_69
*474 FILLER_21_84
*475 FILLER_21_92
*476 FILLER_21_96
*477 FILLER_22_102
*478 FILLER_22_104
*479 FILLER_22_107
*480 FILLER_22_115
*481 FILLER_22_177
*482 FILLER_22_18
*483 FILLER_22_185
*484 FILLER_22_20
*485 FILLER_22_211
*486 FILLER_22_215
*487 FILLER_22_37
*488 FILLER_22_41
*489 FILLER_22_53
*490 FILLER_22_69
*491 FILLER_22_81
*492 FILLER_22_94
*493 FILLER_23_10
*494 FILLER_23_135
*495 FILLER_23_139
*496 FILLER_23_14
*497 FILLER_23_142
*498 FILLER_23_174
*499 FILLER_23_182
*500 FILLER_23_2
*501 FILLER_23_27
*502 FILLER_23_59
*503 FILLER_23_67
*504 FILLER_23_69
*505 FILLER_23_72
*506 FILLER_24_101
*507 FILLER_24_107
*508 FILLER_24_171
*509 FILLER_24_177
*510 FILLER_24_185
*511 FILLER_24_2
*512 FILLER_24_203
*513 FILLER_24_214
*514 FILLER_24_34
*515 FILLER_24_37
*516 FILLER_25_136
*517 FILLER_25_142
*518 FILLER_25_158
*519 FILLER_25_166
*520 FILLER_25_170
*521 FILLER_25_172
*522 FILLER_25_18
*523 FILLER_25_2
*524 FILLER_25_207
*525 FILLER_25_209
*526 FILLER_25_212
*527 FILLER_25_26
*528 FILLER_25_36
*529 FILLER_25_68
*530 FILLER_25_72
*531 FILLER_26_103
*532 FILLER_26_107
*533 FILLER_26_111
*534 FILLER_26_121
*535 FILLER_26_125
*536 FILLER_26_127
*537 FILLER_26_138
*538 FILLER_26_170
*539 FILLER_26_174
*540 FILLER_26_177
*541 FILLER_26_18
*542 FILLER_26_181
*543 FILLER_26_183
*544 FILLER_26_2
*545 FILLER_26_218
*546 FILLER_26_226
*547 FILLER_26_230
*548 FILLER_26_26
*549 FILLER_26_46
*550 FILLER_26_78
*551 FILLER_27_150
*552 FILLER_27_182
*553 FILLER_27_198
*554 FILLER_27_2
*555 FILLER_27_206
*556 FILLER_27_212
*557 FILLER_27_59
*558 FILLER_27_6
*559 FILLER_27_67
*560 FILLER_27_69
*561 FILLER_27_8
*562 FILLER_28_10
*563 FILLER_28_101
*564 FILLER_28_107
*565 FILLER_28_111
*566 FILLER_28_162
*567 FILLER_28_170
*568 FILLER_28_174
*569 FILLER_28_177
*570 FILLER_28_2
*571 FILLER_28_209
*572 FILLER_28_225
*573 FILLER_28_229
*574 FILLER_28_231
*575 FILLER_28_45
*576 FILLER_29_123
*577 FILLER_29_127
*578 FILLER_29_137
*579 FILLER_29_139
*580 FILLER_29_142
*581 FILLER_29_2
*582 FILLER_29_206
*583 FILLER_29_212
*584 FILLER_29_228
*585 FILLER_29_42
*586 FILLER_29_46
*587 FILLER_29_55
*588 FILLER_29_6
*589 FILLER_29_63
*590 FILLER_29_67
*591 FILLER_29_69
*592 FILLER_29_72
*593 FILLER_29_76
*594 FILLER_29_78
*595 FILLER_2_102
*596 FILLER_2_104
*597 FILLER_2_122
*598 FILLER_2_124
*599 FILLER_2_167
*600 FILLER_2_177
*601 FILLER_2_185
*602 FILLER_2_2
*603 FILLER_2_220
*604 FILLER_2_228
*605 FILLER_2_34
*606 FILLER_2_37
*607 FILLER_2_53
*608 FILLER_2_61
*609 FILLER_2_98
*610 FILLER_30_102
*611 FILLER_30_104
*612 FILLER_30_115
*613 FILLER_30_131
*614 FILLER_30_163
*615 FILLER_30_171
*616 FILLER_30_177
*617 FILLER_30_18
*618 FILLER_30_2
*619 FILLER_30_209
*620 FILLER_30_225
*621 FILLER_30_229
*622 FILLER_30_231
*623 FILLER_30_28
*624 FILLER_30_32
*625 FILLER_30_34
*626 FILLER_30_37
*627 FILLER_30_69
*628 FILLER_30_73
*629 FILLER_30_86
*630 FILLER_31_10
*631 FILLER_31_117
*632 FILLER_31_135
*633 FILLER_31_139
*634 FILLER_31_142
*635 FILLER_31_2
*636 FILLER_31_206
*637 FILLER_31_212
*638 FILLER_31_228
*639 FILLER_31_48
*640 FILLER_31_64
*641 FILLER_31_68
*642 FILLER_31_72
*643 FILLER_31_80
*644 FILLER_31_84
*645 FILLER_32_138
*646 FILLER_32_172
*647 FILLER_32_2
*648 FILLER_32_206
*649 FILLER_32_222
*650 FILLER_32_230
*651 FILLER_32_36
*652 FILLER_32_70
*653 FILLER_3_108
*654 FILLER_3_124
*655 FILLER_3_142
*656 FILLER_3_174
*657 FILLER_3_2
*658 FILLER_3_206
*659 FILLER_3_212
*660 FILLER_3_229
*661 FILLER_3_231
*662 FILLER_3_34
*663 FILLER_3_50
*664 FILLER_3_54
*665 FILLER_4_107
*666 FILLER_4_123
*667 FILLER_4_127
*668 FILLER_4_164
*669 FILLER_4_172
*670 FILLER_4_174
*671 FILLER_4_177
*672 FILLER_4_181
*673 FILLER_4_2
*674 FILLER_4_217
*675 FILLER_4_225
*676 FILLER_4_229
*677 FILLER_4_231
*678 FILLER_4_34
*679 FILLER_4_37
*680 FILLER_4_69
*681 FILLER_4_73
*682 FILLER_5_123
*683 FILLER_5_131
*684 FILLER_5_133
*685 FILLER_5_157
*686 FILLER_5_189
*687 FILLER_5_193
*688 FILLER_5_195
*689 FILLER_5_2
*690 FILLER_5_212
*691 FILLER_5_66
*692 FILLER_6_122
*693 FILLER_6_130
*694 FILLER_6_134
*695 FILLER_6_150
*696 FILLER_6_166
*697 FILLER_6_174
*698 FILLER_6_177
*699 FILLER_6_193
*700 FILLER_6_195
*701 FILLER_6_2
*702 FILLER_6_209
*703 FILLER_6_225
*704 FILLER_6_229
*705 FILLER_6_231
*706 FILLER_6_34
*707 FILLER_6_37
*708 FILLER_6_69
*709 FILLER_6_77
*710 FILLER_6_81
*711 FILLER_6_97
*712 FILLER_7_129
*713 FILLER_7_137
*714 FILLER_7_139
*715 FILLER_7_155
*716 FILLER_7_187
*717 FILLER_7_191
*718 FILLER_7_2
*719 FILLER_7_208
*720 FILLER_7_216
*721 FILLER_7_66
*722 FILLER_7_72
*723 FILLER_7_88
*724 FILLER_7_92
*725 FILLER_8_101
*726 FILLER_8_107
*727 FILLER_8_166
*728 FILLER_8_174
*729 FILLER_8_181
*730 FILLER_8_197
*731 FILLER_8_199
*732 FILLER_8_2
*733 FILLER_8_216
*734 FILLER_8_34
*735 FILLER_8_37
*736 FILLER_9_104
*737 FILLER_9_120
*738 FILLER_9_124
*739 FILLER_9_142
*740 FILLER_9_146
*741 FILLER_9_162
*742 FILLER_9_2
*743 FILLER_9_200
*744 FILLER_9_224
*745 FILLER_9_66
*746 FILLER_9_72
*747 PHY_EDGE_ROW_0_Left_33
*748 PHY_EDGE_ROW_0_Right_0
*749 PHY_EDGE_ROW_10_Left_43
*750 PHY_EDGE_ROW_10_Right_10
*751 PHY_EDGE_ROW_11_Left_44
*752 PHY_EDGE_ROW_11_Right_11
*753 PHY_EDGE_ROW_12_Left_45
*754 PHY_EDGE_ROW_12_Right_12
*755 PHY_EDGE_ROW_13_Left_46
*756 PHY_EDGE_ROW_13_Right_13
*757 PHY_EDGE_ROW_14_Left_47
*758 PHY_EDGE_ROW_14_Right_14
*759 PHY_EDGE_ROW_15_Left_48
*760 PHY_EDGE_ROW_15_Right_15
*761 PHY_EDGE_ROW_16_Left_49
*762 PHY_EDGE_ROW_16_Right_16
*763 PHY_EDGE_ROW_17_Left_50
*764 PHY_EDGE_ROW_17_Right_17
*765 PHY_EDGE_ROW_18_Left_51
*766 PHY_EDGE_ROW_18_Right_18
*767 PHY_EDGE_ROW_19_Left_52
*768 PHY_EDGE_ROW_19_Right_19
*769 PHY_EDGE_ROW_1_Left_34
*770 PHY_EDGE_ROW_1_Right_1
*771 PHY_EDGE_ROW_20_Left_53
*772 PHY_EDGE_ROW_20_Right_20
*773 PHY_EDGE_ROW_21_Left_54
*774 PHY_EDGE_ROW_21_Right_21
*775 PHY_EDGE_ROW_22_Left_55
*776 PHY_EDGE_ROW_22_Right_22
*777 PHY_EDGE_ROW_23_Left_56
*778 PHY_EDGE_ROW_23_Right_23
*779 PHY_EDGE_ROW_24_Left_57
*780 PHY_EDGE_ROW_24_Right_24
*781 PHY_EDGE_ROW_25_Left_58
*782 PHY_EDGE_ROW_25_Right_25
*783 PHY_EDGE_ROW_26_Left_59
*784 PHY_EDGE_ROW_26_Right_26
*785 PHY_EDGE_ROW_27_Left_60
*786 PHY_EDGE_ROW_27_Right_27
*787 PHY_EDGE_ROW_28_Left_61
*788 PHY_EDGE_ROW_28_Right_28
*789 PHY_EDGE_ROW_29_Left_62
*790 PHY_EDGE_ROW_29_Right_29
*791 PHY_EDGE_ROW_2_Left_35
*792 PHY_EDGE_ROW_2_Right_2
*793 PHY_EDGE_ROW_30_Left_63
*794 PHY_EDGE_ROW_30_Right_30
*795 PHY_EDGE_ROW_31_Left_64
*796 PHY_EDGE_ROW_31_Right_31
*797 PHY_EDGE_ROW_32_Left_65
*798 PHY_EDGE_ROW_32_Right_32
*799 PHY_EDGE_ROW_3_Left_36
*800 PHY_EDGE_ROW_3_Right_3
*801 PHY_EDGE_ROW_4_Left_37
*802 PHY_EDGE_ROW_4_Right_4
*803 PHY_EDGE_ROW_5_Left_38
*804 PHY_EDGE_ROW_5_Right_5
*805 PHY_EDGE_ROW_6_Left_39
*806 PHY_EDGE_ROW_6_Right_6
*807 PHY_EDGE_ROW_7_Left_40
*808 PHY_EDGE_ROW_7_Right_7
*809 PHY_EDGE_ROW_8_Left_41
*810 PHY_EDGE_ROW_8_Right_8
*811 PHY_EDGE_ROW_9_Left_42
*812 PHY_EDGE_ROW_9_Right_9
*813 TAP_TAPCELL_ROW_0_66
*814 TAP_TAPCELL_ROW_0_67
*815 TAP_TAPCELL_ROW_0_68
*816 TAP_TAPCELL_ROW_0_69
*817 TAP_TAPCELL_ROW_0_70
*818 TAP_TAPCELL_ROW_0_71
*819 TAP_TAPCELL_ROW_10_100
*820 TAP_TAPCELL_ROW_10_101
*821 TAP_TAPCELL_ROW_10_99
*822 TAP_TAPCELL_ROW_11_102
*823 TAP_TAPCELL_ROW_11_103
*824 TAP_TAPCELL_ROW_11_104
*825 TAP_TAPCELL_ROW_12_105
*826 TAP_TAPCELL_ROW_12_106
*827 TAP_TAPCELL_ROW_12_107
*828 TAP_TAPCELL_ROW_13_108
*829 TAP_TAPCELL_ROW_13_109
*830 TAP_TAPCELL_ROW_13_110
*831 TAP_TAPCELL_ROW_14_111
*832 TAP_TAPCELL_ROW_14_112
*833 TAP_TAPCELL_ROW_14_113
*834 TAP_TAPCELL_ROW_15_114
*835 TAP_TAPCELL_ROW_15_115
*836 TAP_TAPCELL_ROW_15_116
*837 TAP_TAPCELL_ROW_16_117
*838 TAP_TAPCELL_ROW_16_118
*839 TAP_TAPCELL_ROW_16_119
*840 TAP_TAPCELL_ROW_17_120
*841 TAP_TAPCELL_ROW_17_121
*842 TAP_TAPCELL_ROW_17_122
*843 TAP_TAPCELL_ROW_18_123
*844 TAP_TAPCELL_ROW_18_124
*845 TAP_TAPCELL_ROW_18_125
*846 TAP_TAPCELL_ROW_19_126
*847 TAP_TAPCELL_ROW_19_127
*848 TAP_TAPCELL_ROW_19_128
*849 TAP_TAPCELL_ROW_1_72
*850 TAP_TAPCELL_ROW_1_73
*851 TAP_TAPCELL_ROW_1_74
*852 TAP_TAPCELL_ROW_20_129
*853 TAP_TAPCELL_ROW_20_130
*854 TAP_TAPCELL_ROW_20_131
*855 TAP_TAPCELL_ROW_21_132
*856 TAP_TAPCELL_ROW_21_133
*857 TAP_TAPCELL_ROW_21_134
*858 TAP_TAPCELL_ROW_22_135
*859 TAP_TAPCELL_ROW_22_136
*860 TAP_TAPCELL_ROW_22_137
*861 TAP_TAPCELL_ROW_23_138
*862 TAP_TAPCELL_ROW_23_139
*863 TAP_TAPCELL_ROW_23_140
*864 TAP_TAPCELL_ROW_24_141
*865 TAP_TAPCELL_ROW_24_142
*866 TAP_TAPCELL_ROW_24_143
*867 TAP_TAPCELL_ROW_25_144
*868 TAP_TAPCELL_ROW_25_145
*869 TAP_TAPCELL_ROW_25_146
*870 TAP_TAPCELL_ROW_26_147
*871 TAP_TAPCELL_ROW_26_148
*872 TAP_TAPCELL_ROW_26_149
*873 TAP_TAPCELL_ROW_27_150
*874 TAP_TAPCELL_ROW_27_151
*875 TAP_TAPCELL_ROW_27_152
*876 TAP_TAPCELL_ROW_28_153
*877 TAP_TAPCELL_ROW_28_154
*878 TAP_TAPCELL_ROW_28_155
*879 TAP_TAPCELL_ROW_29_156
*880 TAP_TAPCELL_ROW_29_157
*881 TAP_TAPCELL_ROW_29_158
*882 TAP_TAPCELL_ROW_2_75
*883 TAP_TAPCELL_ROW_2_76
*884 TAP_TAPCELL_ROW_2_77
*885 TAP_TAPCELL_ROW_30_159
*886 TAP_TAPCELL_ROW_30_160
*887 TAP_TAPCELL_ROW_30_161
*888 TAP_TAPCELL_ROW_31_162
*889 TAP_TAPCELL_ROW_31_163
*890 TAP_TAPCELL_ROW_31_164
*891 TAP_TAPCELL_ROW_32_165
*892 TAP_TAPCELL_ROW_32_166
*893 TAP_TAPCELL_ROW_32_167
*894 TAP_TAPCELL_ROW_32_168
*895 TAP_TAPCELL_ROW_32_169
*896 TAP_TAPCELL_ROW_32_170
*897 TAP_TAPCELL_ROW_3_78
*898 TAP_TAPCELL_ROW_3_79
*899 TAP_TAPCELL_ROW_3_80
*900 TAP_TAPCELL_ROW_4_81
*901 TAP_TAPCELL_ROW_4_82
*902 TAP_TAPCELL_ROW_4_83
*903 TAP_TAPCELL_ROW_5_84
*904 TAP_TAPCELL_ROW_5_85
*905 TAP_TAPCELL_ROW_5_86
*906 TAP_TAPCELL_ROW_6_87
*907 TAP_TAPCELL_ROW_6_88
*908 TAP_TAPCELL_ROW_6_89
*909 TAP_TAPCELL_ROW_7_90
*910 TAP_TAPCELL_ROW_7_91
*911 TAP_TAPCELL_ROW_7_92
*912 TAP_TAPCELL_ROW_8_93
*913 TAP_TAPCELL_ROW_8_94
*914 TAP_TAPCELL_ROW_8_95
*915 TAP_TAPCELL_ROW_9_96
*916 TAP_TAPCELL_ROW_9_97
*917 TAP_TAPCELL_ROW_9_98
*918 _138_
*919 _139_
*920 _140_
*921 _141_
*922 _142_
*923 _143_
*924 _144_
*925 _145_
*926 _146_
*927 _147_
*928 _148_
*929 _149_
*930 _150_
*931 _151_
*932 _152_
*933 _153_
*934 _154_
*935 _155_
*936 _156_
*937 _157_
*938 _158_
*939 _159_
*940 _160_
*941 _161_
*942 _162_
*943 _163_
*944 _164_
*945 _165_
*946 _166_
*947 _167_
*948 _168_
*949 _169_
*950 _170_
*951 _171_
*952 _172_
*953 _173_
*954 _174_
*955 _175_
*956 _176_
*957 _177_
*958 _178_
*959 _179_
*960 _180_
*961 _181_
*962 _182_
*963 _183_
*964 _184_
*965 _185_
*966 _186_
*967 _187_
*968 _188_
*969 _189_
*970 _190_
*971 _191_
*972 _192_
*973 _193_
*974 _194_
*975 _195_
*976 _196_
*977 _197_
*978 _198_
*979 _199_
*980 _200_
*981 _201_
*982 _202_
*983 _203_
*984 _204_
*985 _205_
*986 _206_
*987 _207_
*988 _208_
*989 _209_
*990 _210_
*991 _211_
*992 _212_
*993 _213_
*994 _214_
*995 _215_
*996 _216_
*997 _217_
*998 _218_
*999 _219_
*1000 _220_
*1001 _221_
*1002 _222_
*1003 _223_
*1004 _224_
*1005 _225_
*1006 _226_
*1007 _227_
*1008 _228_
*1009 _229_
*1010 _230_
*1011 _231_
*1012 _232_
*1013 _233_
*1014 _234_
*1015 _235_
*1016 _236_
*1017 _237_
*1018 _238_
*1019 _239_
*1020 _240_
*1021 _241_
*1022 _242_
*1023 _243_
*1024 _244_
*1025 _245_
*1026 _246_
*1027 _247_
*1028 _248_
*1029 _249_
*1030 _250_
*1031 _251_
*1032 _252_
*1033 _253_
*1034 _254_
*1035 _255_
*1036 _256_
*1037 _257_
*1038 _258_
*1039 _259_
*1040 _260_
*1041 _261_
*1042 _262_
*1043 _263_
*1044 _264_
*1045 _265_
*1046 _266_
*1047 _267_
*1048 _268_
*1049 _269_
*1050 _270_
*1051 _271_
*1052 _272_
*1053 _273_
*1054 _274_
*1055 _275_
*1056 _276_
*1057 _277_
*1058 _278_
*1059 _279_
*1060 _280_
*1061 _281_
*1062 _282_
*1063 _283_
*1064 _284_
*1065 _285_
*1066 _286_
*1067 _287_
*1068 _288_
*1069 _289_
*1070 _290_
*1071 _291_
*1072 _292_
*1073 _293_
*1074 _294_
*1075 _295_
*1076 _296_
*1077 _297_
*1078 _298_
*1079 _299_
*1080 _300_
*1081 _301_
*1082 _302_
*1083 _303_
*1084 _304_
*1085 _305_
*1086 _306_
*1087 _307_
*1088 _308_
*1089 _309_
*1090 clkbuf_0_clk_i
*1091 clkbuf_2_0__f_clk_i
*1092 clkbuf_2_1__f_clk_i
*1093 clkbuf_2_2__f_clk_i
*1094 clkbuf_2_3__f_clk_i
*1095 clkload0
*1096 clkload1
*1097 fanout36
*1098 fanout37
*1099 fanout43
*1100 fanout44
*1101 fanout45
*1102 fanout46
*1103 input1
*1104 input10
*1105 input11
*1106 input12
*1107 input13
*1108 input14
*1109 input15
*1110 input16
*1111 input17
*1112 input18
*1113 input19
*1114 input2
*1115 input20
*1116 input21
*1117 input22
*1118 input23
*1119 input24
*1120 input25
*1121 input26
*1122 input27
*1123 input28
*1124 input29
*1125 input3
*1126 input30
*1127 input31
*1128 input4
*1129 input5
*1130 input6
*1131 input7
*1132 input8
*1133 input9
*1134 max_cap35
*1135 max_cap39
*1136 max_cap40
*1137 max_cap42
*1138 output32
*1139 output33
*1140 output34
*1141 wire38
*1142 wire41

*PORTS
busy_o O
cfg_bits_i[0] I
cfg_bits_i[1] I
cfg_div_i[0] I
cfg_div_i[10] I
cfg_div_i[11] I
cfg_div_i[12] I
cfg_div_i[13] I
cfg_div_i[14] I
cfg_div_i[15] I
cfg_div_i[1] I
cfg_div_i[2] I
cfg_div_i[3] I
cfg_div_i[4] I
cfg_div_i[5] I
cfg_div_i[6] I
cfg_div_i[7] I
cfg_div_i[8] I
cfg_div_i[9] I
cfg_en_i I
cfg_parity_en_i I
cfg_stop_bits_i I
clk_i I
rstn_i I
tx_data_i[0] I
tx_data_i[1] I
tx_data_i[2] I
tx_data_i[3] I
tx_data_i[4] I
tx_data_i[5] I
tx_data_i[6] I
tx_data_i[7] I
tx_o O
tx_ready_o O
tx_valid_i I

*D_NET *3 0.000936165
*CONN
*P busy_o O
*I *1138:Z O *D gf180mcu_fd_sc_mcu7t5v0__dlyb_1
*CAP
1 busy_o 0.000468083
2 *1138:Z 0.000468083
*RES
1 *1138:Z busy_o 12.0956 
*END

*D_NET *4 0.00089258
*CONN
*P cfg_bits_i[0] I
*I *1103:I I *D gf180mcu_fd_sc_mcu7t5v0__dlyb_1
*CAP
1 cfg_bits_i[0] 0.000177091
2 *1103:I 0.000177091
3 *1103:I *1114:I 0.000538397
*RES
1 cfg_bits_i[0] *1103:I 11.5636 
*END

*D_NET *5 0.00129137
*CONN
*P cfg_bits_i[1] I
*I *1114:I I *D gf180mcu_fd_sc_mcu7t5v0__dlyb_1
*CAP
1 cfg_bits_i[1] 0.000376486
2 *1114:I 0.000376486
3 *1114:I *241:38 0
4 *1103:I *1114:I 0.000538397
*RES
1 cfg_bits_i[1] *1114:I 12.7036 
*END

*D_NET *6 0.00206369
*CONN
*P cfg_div_i[0] I
*I *1125:I I *D gf180mcu_fd_sc_mcu7t5v0__dlyb_1
*CAP
1 cfg_div_i[0] 0.000668263
2 *1125:I 0.000668263
3 *1125:I *933:A1 0.000147111
4 *1125:I *943:A1 3.62081e-05
5 *1125:I *1078:CLK 2.30549e-05
6 *1125:I *1079:D 0
7 *1125:I *1106:I 0.00052079
*RES
1 cfg_div_i[0] *1125:I 14.586 
*END

*D_NET *7 0.00295549
*CONN
*P cfg_div_i[10] I
*I *1128:I I *D gf180mcu_fd_sc_mcu7t5v0__dlyb_1
*CAP
1 cfg_div_i[10] 0.00065363
2 *1128:I 0.00065363
3 *1128:I *946:A1 0
4 *1128:I *1111:I 0.00164529
5 *1128:I *1130:I 2.9378e-06
*RES
1 cfg_div_i[10] *1128:I 20.3196 
*END

*D_NET *8 0.000999503
*CONN
*P cfg_div_i[11] I
*I *1129:I I *D gf180mcu_fd_sc_mcu7t5v0__dlyb_1
*CAP
1 cfg_div_i[11] 0.000499751
2 *1129:I 0.000499751
3 *1129:I *1110:I 0
4 *1129:I *1112:I 0
*RES
1 cfg_div_i[11] *1129:I 12.306 
*END

*D_NET *9 0.00261164
*CONN
*P cfg_div_i[12] I
*I *1130:I I *D gf180mcu_fd_sc_mcu7t5v0__dlyb_1
*CAP
1 cfg_div_i[12] 0.00108326
2 *1130:I 0.00108326
3 *1130:I *946:A1 0
4 *1130:I *1131:I 0.000442187
5 *1128:I *1130:I 2.9378e-06
*RES
1 cfg_div_i[12] *1130:I 21.5356 
*END

*D_NET *10 0.00202303
*CONN
*P cfg_div_i[13] I
*I *1131:I I *D gf180mcu_fd_sc_mcu7t5v0__dlyb_1
*CAP
1 cfg_div_i[13] 0.000678029
2 *1131:I 0.000678029
3 *1131:I *931:A1 0
4 *1131:I *1132:I 0.000224785
5 *1130:I *1131:I 0.000442187
*RES
1 cfg_div_i[13] *1131:I 10.7876 
*END

*D_NET *11 0.00306252
*CONN
*P cfg_div_i[14] I
*I *1132:I I *D gf180mcu_fd_sc_mcu7t5v0__dlyb_1
*CAP
1 cfg_div_i[14] 0.000932187
2 *1132:I 0.000932187
3 *1132:I *931:A1 3.36123e-05
4 *1132:I *1133:I 0.00093975
5 *1131:I *1132:I 0.000224785
*RES
1 cfg_div_i[14] *1132:I 21.5356 
*END

*D_NET *12 0.00261308
*CONN
*P cfg_div_i[15] I
*I *1133:I I *D gf180mcu_fd_sc_mcu7t5v0__dlyb_1
*CAP
1 cfg_div_i[15] 0.000836664
2 *1133:I 0.000836664
3 *1132:I *1133:I 0.00093975
*RES
1 cfg_div_i[15] *1133:I 20.3549 
*END

*D_NET *13 0.00114131
*CONN
*P cfg_div_i[1] I
*I *1104:I I *D gf180mcu_fd_sc_mcu7t5v0__dlyb_1
*CAP
1 cfg_div_i[1] 0.000314868
2 *1104:I 0.000314868
3 *1104:I *1105:I 0.000511573
4 *1104:I *1108:I 0
*RES
1 cfg_div_i[1] *1104:I 12.154 
*END

*D_NET *14 0.00174917
*CONN
*P cfg_div_i[2] I
*I *1105:I I *D gf180mcu_fd_sc_mcu7t5v0__dlyb_1
*CAP
1 cfg_div_i[2] 0.00017775
2 *1105:I 0.00017775
3 *1105:I *1106:I 0.000882099
4 *1104:I *1105:I 0.000511573
*RES
1 cfg_div_i[2] *1105:I 12.762 
*END

*D_NET *15 0.00242921
*CONN
*P cfg_div_i[3] I
*I *1106:I I *D gf180mcu_fd_sc_mcu7t5v0__dlyb_1
*CAP
1 cfg_div_i[3] 0.00051316
2 *1106:I 0.00051316
3 *1106:I *1078:CLK 0
4 *1106:I *197:83 0
5 *1105:I *1106:I 0.000882099
6 *1125:I *1106:I 0.00052079
*RES
1 cfg_div_i[3] *1106:I 14.738 
*END

*D_NET *16 0.00126838
*CONN
*P cfg_div_i[4] I
*I *1107:I I *D gf180mcu_fd_sc_mcu7t5v0__dlyb_1
*CAP
1 cfg_div_i[4] 0.000374826
2 *1107:I 0.000374826
3 *1107:I *1109:I 0.000518731
4 *1107:I *1110:I 0
*RES
1 cfg_div_i[4] *1107:I 12.61 
*END

*D_NET *17 0.000863918
*CONN
*P cfg_div_i[5] I
*I *1108:I I *D gf180mcu_fd_sc_mcu7t5v0__dlyb_1
*CAP
1 cfg_div_i[5] 0.000431959
2 *1108:I 0.000431959
3 *1108:I *1109:I 0
4 *1104:I *1108:I 0
*RES
1 cfg_div_i[5] *1108:I 12.002 
*END

*D_NET *18 0.000870432
*CONN
*P cfg_div_i[6] I
*I *1109:I I *D gf180mcu_fd_sc_mcu7t5v0__dlyb_1
*CAP
1 cfg_div_i[6] 0.000175851
2 *1109:I 0.000175851
3 *1107:I *1109:I 0.000518731
4 *1108:I *1109:I 0
*RES
1 cfg_div_i[6] *1109:I 11.47 
*END

*D_NET *19 0.00101009
*CONN
*P cfg_div_i[7] I
*I *1110:I I *D gf180mcu_fd_sc_mcu7t5v0__dlyb_1
*CAP
1 cfg_div_i[7] 0.000505046
2 *1110:I 0.000505046
3 *1107:I *1110:I 0
4 *1129:I *1110:I 0
*RES
1 cfg_div_i[7] *1110:I 12.306 
*END

*D_NET *20 0.00336626
*CONN
*P cfg_div_i[8] I
*I *1111:I I *D gf180mcu_fd_sc_mcu7t5v0__dlyb_1
*CAP
1 cfg_div_i[8] 0.000860483
2 *1111:I 0.000860483
3 *1111:I *938:A1 0
4 *1111:I *946:A1 0
5 *1128:I *1111:I 0.00164529
*RES
1 cfg_div_i[8] *1111:I 21.5356 
*END

*D_NET *21 0.000876851
*CONN
*P cfg_div_i[9] I
*I *1112:I I *D gf180mcu_fd_sc_mcu7t5v0__dlyb_1
*CAP
1 cfg_div_i[9] 0.000438426
2 *1112:I 0.000438426
3 *1129:I *1112:I 0
*RES
1 cfg_div_i[9] *1112:I 11.85 
*END

*D_NET *22 0.00194438
*CONN
*P cfg_en_i I
*I *1113:I I *D gf180mcu_fd_sc_mcu7t5v0__dlyb_1
*CAP
1 cfg_en_i 0.000158468
2 *1113:I 0.000158468
3 *1113:I tx_ready_o 0.000154451
4 *1113:I *1115:I 0.000954676
5 *1113:I *1116:I 0.000518316
6 *1113:I *213:10 0
*RES
1 cfg_en_i *1113:I 13.0076 
*END

*D_NET *23 0.00228767
*CONN
*P cfg_parity_en_i I
*I *1115:I I *D gf180mcu_fd_sc_mcu7t5v0__dlyb_1
*CAP
1 cfg_parity_en_i 0.000666496
2 *1115:I 0.000666496
3 *1113:I *1115:I 0.000954676
*RES
1 cfg_parity_en_i *1115:I 14.9076 
*END

*D_NET *24 0.00139154
*CONN
*P cfg_stop_bits_i I
*I *1116:I I *D gf180mcu_fd_sc_mcu7t5v0__dlyb_1
*CAP
1 cfg_stop_bits_i 0.000103964
2 *1116:I 0.000103964
3 *1116:I tx_ready_o 0.000665297
4 *1116:I *213:10 0
5 *1113:I *1116:I 0.000518316
*RES
1 cfg_stop_bits_i *1116:I 12.0956 
*END

*D_NET *25 0.0114284
*CONN
*P clk_i I
*I *1090:I I *D gf180mcu_fd_sc_mcu7t5v0__clkbuf_16
*CAP
1 clk_i 0.00432648
2 *1090:I 7.94366e-05
3 *25:18 0.00440592
4 *1090:I *950:A1 0
5 *1090:I *950:A4 8.37794e-05
6 *1090:I *951:A3 4.615e-05
7 *25:18 *937:A2 0.000175439
8 *25:18 *946:A1 0.000290208
9 *25:18 *950:A3 9.36782e-05
10 *25:18 *950:A4 0.000293889
11 *25:18 *951:A1 0.000113238
12 *25:18 *951:A2 0.000154637
13 *25:18 *951:A3 0.000176106
14 *25:18 *983:A1 0
15 *25:18 *993:B 1.20079e-05
16 *25:18 *1077:RN 3.73535e-05
17 *25:18 *105:14 0
18 *25:18 *182:16 0.000237959
19 *25:18 *183:17 0.000397877
20 *25:18 *193:34 0
21 *25:18 *199:52 0
22 *25:18 *240:25 0.00011135
23 *25:18 *240:44 0.00039286
24 *25:18 *240:48 0
25 *25:18 *240:61 0
26 *25:18 *240:65 0
*RES
1 clk_i *25:18 35.774 
2 *25:18 *1090:I 5.184 
*END

*D_NET *26 0.00171162
*CONN
*P rstn_i I
*I *1117:I I *D gf180mcu_fd_sc_mcu7t5v0__dlyb_1
*CAP
1 rstn_i 0.000811052
2 *1117:I 0.000811052
3 *1117:I *1071:RN 0
4 *1117:I *1100:I 0
5 *1117:I *1102:I 0
6 *1117:I *58:10 8.95196e-05
*RES
1 rstn_i *1117:I 14.5276 
*END

*D_NET *27 0.00290912
*CONN
*P tx_data_i[0] I
*I *1118:I I *D gf180mcu_fd_sc_mcu7t5v0__dlyb_1
*CAP
1 tx_data_i[0] 0.000630049
2 *1118:I 0.000630049
3 *1118:I *1122:I 0.000474971
4 *1118:I *1123:I 0.000136981
5 *1118:I *1124:I 0.000526238
6 *1118:I *1126:I 0.000510833
*RES
1 tx_data_i[0] *1118:I 20.074 
*END

*D_NET *28 0.00155005
*CONN
*P tx_data_i[1] I
*I *1119:I I *D gf180mcu_fd_sc_mcu7t5v0__dlyb_1
*CAP
1 tx_data_i[1] 0.000775027
2 *1119:I 0.000775027
3 *1119:I *1121:I 0
*RES
1 tx_data_i[1] *1119:I 9.782 
*END

*D_NET *29 0.00155563
*CONN
*P tx_data_i[2] I
*I *1120:I I *D gf180mcu_fd_sc_mcu7t5v0__dlyb_1
*CAP
1 tx_data_i[2] 0.000564708
2 *1120:I 0.000564708
3 *1120:I *1121:I 0.000426209
*RES
1 tx_data_i[2] *1120:I 9.478 
*END

*D_NET *30 0.00207302
*CONN
*P tx_data_i[3] I
*I *1121:I I *D gf180mcu_fd_sc_mcu7t5v0__dlyb_1
*CAP
1 tx_data_i[3] 0.000812515
2 *1121:I 0.000812515
3 *1121:I *1038:I0 1.02578e-05
4 *1121:I *1038:S 1.15275e-05
5 *1119:I *1121:I 0
6 *1120:I *1121:I 0.000426209
*RES
1 tx_data_i[3] *1121:I 10.998 
*END

*D_NET *31 0.00427964
*CONN
*P tx_data_i[4] I
*I *1122:I I *D gf180mcu_fd_sc_mcu7t5v0__dlyb_1
*CAP
1 tx_data_i[4] 0.000536997
2 *1122:I 0.000536997
3 *1122:I *1042:A1 0.000438681
4 *1122:I *1123:I 0.000317009
5 *1122:I *1124:I 0.000764975
6 *1122:I *1126:I 0.00121001
7 *1118:I *1122:I 0.000474971
*RES
1 tx_data_i[4] *1122:I 22.05 
*END

*D_NET *32 0.0027378
*CONN
*P tx_data_i[5] I
*I *1123:I I *D gf180mcu_fd_sc_mcu7t5v0__dlyb_1
*CAP
1 tx_data_i[5] 0.000940379
2 *1123:I 0.000940379
3 *1123:I *1037:I1 2.22758e-05
4 *1123:I *1039:I0 0
5 *1123:I *1042:A1 5.67499e-05
6 *1123:I *1124:I 0.000230357
7 *1123:I *1126:I 9.36691e-05
8 *1118:I *1123:I 0.000136981
9 *1122:I *1123:I 0.000317009
*RES
1 tx_data_i[5] *1123:I 21.138 
*END

*D_NET *33 0.0034064
*CONN
*P tx_data_i[6] I
*I *1124:I I *D gf180mcu_fd_sc_mcu7t5v0__dlyb_1
*CAP
1 tx_data_i[6] 0.000656995
2 *1124:I 0.000656995
3 *1124:I *1126:I 0.000570843
4 *1118:I *1124:I 0.000526238
5 *1122:I *1124:I 0.000764975
6 *1123:I *1124:I 0.000230357
*RES
1 tx_data_i[6] *1124:I 21.898 
*END

*D_NET *34 0.00481624
*CONN
*P tx_data_i[7] I
*I *1126:I I *D gf180mcu_fd_sc_mcu7t5v0__dlyb_1
*CAP
1 tx_data_i[7] 0.000910458
2 *1126:I 0.000910458
3 *1126:I *1037:I1 1.74287e-05
4 *1126:I *1042:A1 9.68431e-05
5 *1126:I *1067:SETN 0.000495697
6 *1118:I *1126:I 0.000510833
7 *1122:I *1126:I 0.00121001
8 *1123:I *1126:I 9.36691e-05
9 *1124:I *1126:I 0.000570843
*RES
1 tx_data_i[7] *1126:I 23.418 
*END

*D_NET *35 0.00102997
*CONN
*P tx_o O
*I *1139:Z O *D gf180mcu_fd_sc_mcu7t5v0__dlyb_1
*CAP
1 tx_o 0.000514984
2 *1139:Z 0.000514984
*RES
1 *1139:Z tx_o 12.3996 
*END

*D_NET *36 0.00148327
*CONN
*P tx_ready_o O
*I *1140:Z O *D gf180mcu_fd_sc_mcu7t5v0__dlyb_1
*CAP
1 tx_ready_o 0.000331762
2 *1140:Z 0.000331762
3 tx_ready_o *213:10 0
4 *1113:I tx_ready_o 0.000154451
5 *1116:I tx_ready_o 0.000665297
*RES
1 *1140:Z tx_ready_o 12.7036 
*END

*D_NET *37 0.00106164
*CONN
*P tx_valid_i I
*I *1127:I I *D gf180mcu_fd_sc_mcu7t5v0__dlyb_1
*CAP
1 tx_valid_i 0.000530818
2 *1127:I 0.000530818
3 *1127:I *241:38 0
*RES
1 tx_valid_i *1127:I 12.5516 
*END

*D_NET *38 0.0109875
*CONN
*I *1006:A1 I *D gf180mcu_fd_sc_mcu7t5v0__nand2_1
*I *1004:A1 I *D gf180mcu_fd_sc_mcu7t5v0__aoi22_1
*I *1002:A1 I *D gf180mcu_fd_sc_mcu7t5v0__nand2_1
*I *919:I I *D gf180mcu_fd_sc_mcu7t5v0__clkinv_1
*I *1001:A1 I *D gf180mcu_fd_sc_mcu7t5v0__nand2_1
*I *1007:A2 I *D gf180mcu_fd_sc_mcu7t5v0__nor3_1
*I *1026:A2 I *D gf180mcu_fd_sc_mcu7t5v0__nor4_1
*I *928:A2 I *D gf180mcu_fd_sc_mcu7t5v0__nor3_1
*I *1058:Q O *D gf180mcu_fd_sc_mcu7t5v0__dffrnq_1
*CAP
1 *1006:A1 0.000203805
2 *1004:A1 0
3 *1002:A1 0.000163042
4 *919:I 9.70374e-05
5 *1001:A1 0
6 *1007:A2 0.00020167
7 *1026:A2 9.86214e-05
8 *928:A2 0
9 *1058:Q 0
10 *38:75 0.00034056
11 *38:51 0.000132291
12 *38:38 0.000236923
13 *38:36 0.000281912
14 *38:25 0.000305176
15 *38:16 0.000385246
16 *38:6 0.00048689
17 *919:I *1001:A2 8.55242e-05
18 *919:I *1004:A2 1.42281e-05
19 *919:I *40:45 1.54333e-05
20 *919:I *74:14 6.17803e-05
21 *919:I *74:51 0
22 *1002:A1 *1002:A2 7.24161e-06
23 *1002:A1 *1004:B1 0.000180353
24 *1002:A1 *1004:B2 0
25 *1002:A1 *241:38 0.000262008
26 *1006:A1 *925:I 9.45347e-06
27 *1006:A1 *1006:A2 0.000130987
28 *1006:A1 *1012:A2 9.26705e-05
29 *1006:A1 *1019:A1 2.22657e-05
30 *1006:A1 *1058:D 0.000204046
31 *1006:A1 *1137:I 0.000111039
32 *1006:A1 *241:38 1.31444e-05
33 *1007:A2 *1001:A2 1.33342e-06
34 *1007:A2 *1003:A1 0.000284673
35 *1007:A2 *1003:A2 0.000668373
36 *1007:A2 *1007:A1 3.99555e-05
37 *1007:A2 *1007:A3 0.000308697
38 *1007:A2 *74:14 0.000259718
39 *1026:A2 *1026:A1 3.26422e-05
40 *1026:A2 *1026:A4 2.69101e-05
41 *1026:A2 *1056:B 0.000211877
42 *1026:A2 *1056:C 2.63488e-06
43 *38:16 *925:I 8.07844e-06
44 *38:16 *930:A1 0.000171927
45 *38:16 *1005:C 0.000372137
46 *38:16 *1058:D 0.000387757
47 *38:16 *1137:I 0.000287979
48 *38:16 *39:40 0.000156492
49 *38:16 *40:75 0.000201948
50 *38:16 *82:12 2.6126e-05
51 *38:16 *139:10 5.74961e-05
52 *38:25 *925:I 0
53 *38:25 *1056:A1 0.000188292
54 *38:25 *1056:A2 2.47642e-05
55 *38:25 *39:34 0.000628171
56 *38:25 *39:40 3.19219e-05
57 *38:25 *79:8 0.000723661
58 *38:36 *927:A2 0.000132633
59 *38:36 *1056:A2 0.00013979
60 *38:36 *39:34 4.47565e-05
61 *38:51 *1001:A2 0.00020108
62 *38:51 *1003:A1 9.88736e-06
63 *38:51 *40:54 1.0973e-05
64 *38:51 *74:14 0.000291377
65 *38:75 *927:A2 1.99058e-05
66 *38:75 *1003:A1 0.000190559
67 *38:75 *1004:A2 0.000696461
68 *38:75 *40:65 3.16765e-06
*RES
1 *1058:Q *38:6 9 
2 *38:6 *38:16 12.876 
3 *38:16 *928:A2 9 
4 *38:16 *38:25 3.268 
5 *38:25 *1026:A2 9.836 
6 *38:25 *38:36 1.14 
7 *38:36 *38:38 4.5 
8 *38:38 *1007:A2 7.768 
9 *38:38 *38:51 0.836 
10 *38:51 *1001:A1 4.5 
11 *38:51 *919:I 14.412 
12 *38:36 *38:75 6.78 
13 *38:75 *1002:A1 6.476 
14 *38:75 *1004:A1 4.5 
15 *38:6 *1006:A1 10.9 
*END

*D_NET *39 0.0101141
*CONN
*I *1016:A3 I *D gf180mcu_fd_sc_mcu7t5v0__nand4_1
*I *1022:A2 I *D gf180mcu_fd_sc_mcu7t5v0__nand3_1
*I *920:I I *D gf180mcu_fd_sc_mcu7t5v0__clkinv_1
*I *927:A2 I *D gf180mcu_fd_sc_mcu7t5v0__nor2_1
*I *928:A3 I *D gf180mcu_fd_sc_mcu7t5v0__nor3_1
*I *930:A2 I *D gf180mcu_fd_sc_mcu7t5v0__aoi21_1
*I *1005:A2 I *D gf180mcu_fd_sc_mcu7t5v0__aoi211_1
*I *1059:Q O *D gf180mcu_fd_sc_mcu7t5v0__dffrnq_1
*CAP
1 *1016:A3 0
2 *1022:A2 0
3 *920:I 0
4 *927:A2 8.92193e-05
5 *928:A3 0
6 *930:A2 0.000428128
7 *1005:A2 0
8 *1059:Q 0.000391339
9 *39:40 0.000796114
10 *39:34 0.000479874
11 *39:32 0.000520995
12 *39:26 0.000488992
13 *39:20 0.000386889
14 *39:12 0.000609124
15 *927:A2 *40:65 7.8324e-05
16 *927:A2 *40:67 6.71348e-05
17 *930:A2 *930:A1 5.58953e-05
18 *930:A2 *1089:RN 0.000104594
19 *930:A2 *40:75 4.58601e-06
20 *930:A2 *83:12 0.000248576
21 *930:A2 *241:59 4.2318e-06
22 *39:12 *921:I 5.09899e-05
23 *39:12 *1014:A1 5.76373e-06
24 *39:12 *1014:A2 0.000203747
25 *39:12 *1014:A3 0.00010198
26 *39:12 *1014:A4 2.05156e-05
27 *39:12 *1016:A4 0.000317768
28 *39:12 *1022:A3 0.000212677
29 *39:12 *1024:B 1.34535e-05
30 *39:12 *40:14 6.13012e-05
31 *39:12 *74:51 1.97747e-05
32 *39:12 *178:38 5.53107e-05
33 *39:20 *1016:A4 1.02578e-05
34 *39:20 *1022:A3 0.000846472
35 *39:20 *74:51 0.000260758
36 *39:20 *178:25 5.23776e-05
37 *39:20 *226:14 0
38 *39:20 *241:38 0.000255702
39 *39:26 *1020:A1 0.000206855
40 *39:26 *1022:A1 3.32523e-05
41 *39:26 *74:14 3.07734e-05
42 *39:32 *1026:A4 1.49066e-06
43 *39:32 *1056:A2 4.63109e-05
44 *39:32 *1056:B 0.000140167
45 *39:32 *1056:C 0.000140167
46 *39:32 *74:14 0.000114144
47 *39:34 *1056:B 0.000257276
48 *39:34 *40:67 1.11891e-05
49 *39:34 *40:69 0.000483341
50 *39:40 *925:I 0
51 *39:40 *40:69 0.000118103
52 *39:40 *40:75 0.000274259
53 *39:40 *195:8 0
54 *38:16 *39:40 0.000156492
55 *38:25 *39:34 0.000628171
56 *38:25 *39:40 3.19219e-05
57 *38:36 *927:A2 0.000132633
58 *38:36 *39:34 4.47565e-05
59 *38:75 *927:A2 1.99058e-05
*RES
1 *1059:Q *39:12 8.452 
2 *39:12 *39:20 12.192 
3 *39:20 *39:26 1.596 
4 *39:26 *39:32 7.084 
5 *39:32 *39:34 3.42 
6 *39:34 *39:40 7.692 
7 *39:40 *1005:A2 4.5 
8 *39:40 *930:A2 7.768 
9 *39:34 *928:A3 9 
10 *39:32 *927:A2 9.988 
11 *39:26 *920:I 4.5 
12 *39:20 *1022:A2 4.5 
13 *39:12 *1016:A3 4.5 
*END

*D_NET *40 0.0158473
*CONN
*I *1014:A1 I *D gf180mcu_fd_sc_mcu7t5v0__nand4_1
*I *1007:A1 I *D gf180mcu_fd_sc_mcu7t5v0__nor3_1
*I *1026:A1 I *D gf180mcu_fd_sc_mcu7t5v0__nor4_1
*I *928:A1 I *D gf180mcu_fd_sc_mcu7t5v0__nor3_1
*I *930:A1 I *D gf180mcu_fd_sc_mcu7t5v0__aoi21_1
*I *1005:A1 I *D gf180mcu_fd_sc_mcu7t5v0__aoi211_1
*I *1003:C I *D gf180mcu_fd_sc_mcu7t5v0__aoi211_1
*I *927:A1 I *D gf180mcu_fd_sc_mcu7t5v0__nor2_1
*I *918:I I *D gf180mcu_fd_sc_mcu7t5v0__clkinv_1
*I *1060:Q O *D gf180mcu_fd_sc_mcu7t5v0__dffrnq_1
*CAP
1 *1014:A1 2.77062e-05
2 *1007:A1 0.000115264
3 *1026:A1 1.63335e-05
4 *928:A1 6.396e-05
5 *930:A1 0.000282344
6 *1005:A1 0
7 *1003:C 2.92539e-05
8 *927:A1 0
9 *918:I 0.00026248
10 *1060:Q 0.000486565
11 *40:75 0.000551906
12 *40:69 0.000777265
13 *40:67 0.00051964
14 *40:65 0.000286893
15 *40:54 0.000250389
16 *40:45 0.00129105
17 *40:16 0.00144446
18 *40:14 0.000514271
19 *918:I *1021:A1 5.94709e-06
20 *918:I *1060:RN 0
21 *918:I *148:14 5.19228e-05
22 *918:I *177:8 0.000340241
23 *918:I *177:21 0.000442367
24 *928:A1 *1012:A1 3.77705e-05
25 *928:A1 *1137:I 3.00299e-05
26 *928:A1 *82:12 0.000142505
27 *930:A1 *930:B 0.000414445
28 *930:A1 *1005:C 3.71196e-05
29 *930:A1 *1058:D 4.4998e-05
30 *930:A1 *1058:RN 2.49331e-05
31 *930:A1 *83:12 5.37472e-05
32 *930:A1 *241:44 0.000263429
33 *1003:C *1003:A1 1.50458e-05
34 *1003:C *1004:B2 9.27021e-05
35 *1003:C *1007:A3 0.000147305
36 *1007:A1 *1003:A2 0.000303928
37 *1007:A1 *1011:B 3.07734e-05
38 *1007:A1 *1057:B 0.000895996
39 *1007:A1 *74:14 8.04139e-05
40 *1014:A1 *178:38 5.76373e-06
41 *1026:A1 *1056:C 8.04139e-05
42 *40:14 *921:I 0
43 *40:14 *1024:B 0.000147313
44 *40:14 *1060:D 0
45 *40:14 *1060:RN 0.000341425
46 *40:14 *213:10 8.18373e-05
47 *40:45 *955:A1 0.000682059
48 *40:45 *1001:A2 3.91978e-05
49 *40:45 *1003:A1 0.000128482
50 *40:45 *1004:A2 0.000315328
51 *40:45 *1021:A1 2.67391e-05
52 *40:45 *1060:RN 0
53 *40:45 *1138:I 7.54771e-06
54 *40:45 *1139:I 3.59666e-05
55 *40:45 *74:51 0.000853717
56 *40:45 *178:25 2.4397e-05
57 *40:45 *213:10 0
58 *40:45 *241:38 0
59 *40:54 *1003:A1 0.00023115
60 *40:54 *1004:B2 9.73789e-05
61 *40:54 *178:25 0
62 *40:65 *1003:A1 2.1767e-05
63 *40:65 *1026:A3 8.65627e-06
64 *40:65 *1072:RN 0
65 *40:65 *74:29 0.000253849
66 *40:67 *1026:A3 3.88692e-05
67 *40:69 *1026:A3 0.000101246
68 *40:69 *1056:B 0.000261998
69 *40:69 *1072:D 0
70 *40:75 *82:12 5.08139e-05
71 *919:I *40:45 1.54333e-05
72 *927:A2 *40:65 7.8324e-05
73 *927:A2 *40:67 6.71348e-05
74 *930:A2 *930:A1 5.58953e-05
75 *930:A2 *40:75 4.58601e-06
76 *1007:A2 *1007:A1 3.99555e-05
77 *1026:A2 *1026:A1 3.26422e-05
78 *38:16 *930:A1 0.000171927
79 *38:16 *40:75 0.000201948
80 *38:51 *40:54 1.0973e-05
81 *38:75 *40:65 3.16765e-06
82 *39:12 *1014:A1 5.76373e-06
83 *39:12 *40:14 6.13012e-05
84 *39:34 *40:67 1.11891e-05
85 *39:34 *40:69 0.000483341
86 *39:40 *40:69 0.000118103
87 *39:40 *40:75 0.000274259
*RES
1 *1060:Q *40:14 17.376 
2 *40:14 *40:16 4.5 
3 *40:16 *918:I 11.356 
4 *40:16 *40:45 31.848 
5 *40:45 *927:A1 4.5 
6 *40:45 *40:54 1.216 
7 *40:54 *1003:C 5.032 
8 *40:54 *40:65 5.488 
9 *40:65 *40:67 0.532 
10 *40:67 *40:69 4.028 
11 *40:69 *40:75 6.932 
12 *40:75 *1005:A1 4.5 
13 *40:75 *930:A1 16.768 
14 *40:69 *928:A1 9.608 
15 *40:67 *1026:A1 9.228 
16 *40:65 *1007:A1 11.584 
17 *40:14 *1014:A1 4.728 
*END

*D_NET *41 0.000597443
*CONN
*I *1073:D I *D gf180mcu_fd_sc_mcu7t5v0__dffrnq_1
*I *957:ZN O *D gf180mcu_fd_sc_mcu7t5v0__nor2_1
*CAP
1 *1073:D 0.000132467
2 *957:ZN 0.000132467
3 *1073:D *957:A1 0.000332509
4 *1073:D *197:83 0
*RES
1 *957:ZN *1073:D 10.216 
*END

*D_NET *42 0.00109422
*CONN
*I *1083:D I *D gf180mcu_fd_sc_mcu7t5v0__dffrnq_1
*I *986:ZN O *D gf180mcu_fd_sc_mcu7t5v0__nor3_1
*CAP
1 *1083:D 6.53715e-05
2 *986:ZN 6.53715e-05
3 *1083:D *986:A2 8.81341e-06
4 *1083:D *180:10 0.00021548
5 *1083:D *180:12 0.000199473
6 *1083:D *180:16 8.8425e-05
7 *1083:D *199:48 0.000301618
8 *1083:D *199:52 0.00014967
*RES
1 *986:ZN *1083:D 19.368 
*END

*D_NET *43 0.00102174
*CONN
*I *1084:D I *D gf180mcu_fd_sc_mcu7t5v0__dffrnq_1
*I *990:ZN O *D gf180mcu_fd_sc_mcu7t5v0__nor3_1
*CAP
1 *1084:D 0.000454659
2 *990:ZN 0.000454659
3 *1084:D *979:A2 5.8027e-05
4 *1084:D *983:A3 4.71484e-05
5 *1084:D *1084:CLK 7.24161e-06
*RES
1 *990:ZN *1084:D 20.888 
*END

*D_NET *44 0.0011659
*CONN
*I *1085:D I *D gf180mcu_fd_sc_mcu7t5v0__dffrnq_1
*I *992:ZN O *D gf180mcu_fd_sc_mcu7t5v0__nor2_1
*CAP
1 *1085:D 0.000329267
2 *992:ZN 0.000329267
3 *1085:D *938:A1 0.000195121
4 *1085:D *951:A4 4.71447e-05
5 *1085:D *992:A2 0.000107962
6 *1085:D *231:23 0.000134622
7 *1085:D *236:12 2.25184e-05
*RES
1 *992:ZN *1085:D 12.04 
*END

*D_NET *45 0.00204971
*CONN
*I *1086:D I *D gf180mcu_fd_sc_mcu7t5v0__dffrnq_1
*I *995:ZN O *D gf180mcu_fd_sc_mcu7t5v0__nor3_1
*CAP
1 *1086:D 0.000372425
2 *995:ZN 0.000372425
3 *1086:D *931:A2 9.88736e-06
4 *1086:D *998:A1 1.11891e-05
5 *1086:D *998:A2 5.43763e-05
6 *1086:D *999:A1 8.54817e-05
7 *1086:D *999:A2 0.00010052
8 *1086:D *1000:A3 0.000125453
9 *1086:D *1086:RN 1.9162e-05
10 *1086:D *132:19 0.00082557
11 *1086:D *132:23 7.32209e-05
*RES
1 *995:ZN *1086:D 21.8 
*END

*D_NET *46 0.000804209
*CONN
*I *1087:D I *D gf180mcu_fd_sc_mcu7t5v0__dffrnq_1
*I *997:ZN O *D gf180mcu_fd_sc_mcu7t5v0__aoi21_1
*CAP
1 *1087:D 0.000181465
2 *997:ZN 0.000181465
3 *1087:D *936:A1 0
4 *1087:D *956:A2 0
5 *1087:D *997:A1 0.000148533
6 *1087:D *997:A2 0.000179736
7 *1087:D *1097:I 0.000113011
*RES
1 *997:ZN *1087:D 10.52 
*END

*D_NET *47 0.000753295
*CONN
*I *1088:D I *D gf180mcu_fd_sc_mcu7t5v0__dffrnq_1
*I *1000:ZN O *D gf180mcu_fd_sc_mcu7t5v0__nor3_1
*CAP
1 *1088:D 0.000115208
2 *1000:ZN 0.000115208
3 *1088:D *931:A2 9.1336e-05
4 *1088:D *1000:A3 0.000431543
*RES
1 *1000:ZN *1088:D 10.444 
*END

*D_NET *48 0.00175665
*CONN
*I *1074:D I *D gf180mcu_fd_sc_mcu7t5v0__dffrnq_1
*I *959:ZN O *D gf180mcu_fd_sc_mcu7t5v0__nor2_1
*CAP
1 *1074:D 0.000695053
2 *959:ZN 0.000695053
3 *1074:D *1074:CLK 0
4 *1074:D *196:52 0.000366542
*RES
1 *959:ZN *1074:D 23.32 
*END

*D_NET *49 0.00048947
*CONN
*I *1075:D I *D gf180mcu_fd_sc_mcu7t5v0__dffrnq_1
*I *962:ZN O *D gf180mcu_fd_sc_mcu7t5v0__nor3_1
*CAP
1 *1075:D 8.36949e-05
2 *962:ZN 8.36949e-05
3 *1075:D *109:8 4.58601e-06
4 *1075:D *188:23 0.000317494
*RES
1 *962:ZN *1075:D 9.836 
*END

*D_NET *50 0.00126192
*CONN
*I *1076:D I *D gf180mcu_fd_sc_mcu7t5v0__dffrnq_1
*I *966:ZN O *D gf180mcu_fd_sc_mcu7t5v0__nor3_1
*CAP
1 *1076:D 0.000578831
2 *966:ZN 0.000578831
3 *1076:D *966:A3 4.6818e-05
4 *1076:D *1073:CLK 5.74414e-05
5 *1076:D *1075:CLK 0
*RES
1 *966:ZN *1076:D 12.42 
*END

*D_NET *51 0.000702379
*CONN
*I *1077:D I *D gf180mcu_fd_sc_mcu7t5v0__dffrnq_1
*I *968:ZN O *D gf180mcu_fd_sc_mcu7t5v0__nor2_1
*CAP
1 *1077:D 7.85692e-05
2 *968:ZN 7.85692e-05
3 *1077:D *967:A2 5.22519e-05
4 *1077:D *968:A2 0.000237275
5 *1077:D *112:10 0.000255714
*RES
1 *968:ZN *1077:D 10.064 
*END

*D_NET *52 0.00206414
*CONN
*I *1078:D I *D gf180mcu_fd_sc_mcu7t5v0__dffrnq_1
*I *972:ZN O *D gf180mcu_fd_sc_mcu7t5v0__nor3_1
*CAP
1 *1078:D 0.00059663
2 *972:ZN 0.00059663
3 *1078:D *932:A1 0.00020944
4 *1078:D *933:A1 0
5 *1078:D *973:A1 8.98247e-05
6 *1078:D *1078:CLK 7.24161e-06
7 *1078:D *116:18 0.000434655
8 *1078:D *190:12 0.000129723
*RES
1 *972:ZN *1078:D 23.168 
*END

*D_NET *53 0.00221906
*CONN
*I *1079:D I *D gf180mcu_fd_sc_mcu7t5v0__dffrnq_1
*I *974:ZN O *D gf180mcu_fd_sc_mcu7t5v0__nor2_1
*CAP
1 *1079:D 0.000438729
2 *974:ZN 0.000438729
3 *1079:D *939:A1 1.70277e-05
4 *1079:D *949:A2 0
5 *1079:D *957:A2 4.46349e-05
6 *1079:D *1078:RN 7.45046e-05
7 *1079:D *179:14 0.00105812
8 *1079:D *238:105 0.000147313
9 *1125:I *1079:D 0
*RES
1 *974:ZN *1079:D 22.104 
*END

*D_NET *54 0.000439464
*CONN
*I *1080:D I *D gf180mcu_fd_sc_mcu7t5v0__dffrnq_1
*I *978:ZN O *D gf180mcu_fd_sc_mcu7t5v0__nor3_1
*CAP
1 *1080:D 0.000114687
2 *978:ZN 0.000114687
3 *1080:D *948:A2 0.000161681
4 *1080:D *978:A3 4.84093e-05
*RES
1 *978:ZN *1080:D 9.988 
*END

*D_NET *55 0.000444348
*CONN
*I *1081:D I *D gf180mcu_fd_sc_mcu7t5v0__dffrnq_1
*I *980:ZN O *D gf180mcu_fd_sc_mcu7t5v0__nor2_1
*CAP
1 *1081:D 0.000222174
2 *980:ZN 0.000222174
3 *1081:D *1081:CLK 0
*RES
1 *980:ZN *1081:D 10.368 
*END

*D_NET *56 0.000371703
*CONN
*I *1082:D I *D gf180mcu_fd_sc_mcu7t5v0__dffrnq_1
*I *983:ZN O *D gf180mcu_fd_sc_mcu7t5v0__nor3_1
*CAP
1 *1082:D 0.000142961
2 *983:ZN 0.000142961
3 *1082:D *980:A1 0
4 *1082:D *1081:CLK 2.52728e-05
5 *1082:D *199:61 6.05076e-05
6 *1082:D *230:104 0
*RES
1 *983:ZN *1082:D 10.064 
*END

*D_NET *57 0.000367807
*CONN
*I *1089:D I *D gf180mcu_fd_sc_mcu7t5v0__dffrnq_1
*I *954:Z O *D gf180mcu_fd_sc_mcu7t5v0__and2_1
*CAP
1 *1089:D 0.000183904
2 *954:Z 0.000183904
3 *1089:D *1074:CLK 0
4 *1089:D *200:16 0
*RES
1 *954:Z *1089:D 10.064 
*END

*D_NET *58 0.00498693
*CONN
*I *1010:B I *D gf180mcu_fd_sc_mcu7t5v0__oai21_1
*I *924:I I *D gf180mcu_fd_sc_mcu7t5v0__clkinv_1
*I *1071:Q O *D gf180mcu_fd_sc_mcu7t5v0__dffrnq_1
*CAP
1 *1010:B 0.000312633
2 *924:I 0.000247933
3 *1071:Q 0.000477874
4 *58:10 0.00103844
5 *924:I *1053:A1 1.99333e-05
6 *924:I *239:19 9.45005e-06
7 *924:I *239:21 5.76281e-06
8 *924:I *239:23 3.80219e-06
9 *1010:B *1008:A1 0.000209639
10 *1010:B *1008:A2 0.000803732
11 *1010:B *1072:RN 6.77492e-05
12 *1010:B *239:76 7.6798e-06
13 *1010:B *241:8 2.6126e-05
14 *1010:B *241:38 0.000908196
15 *1010:B *249:8 0.000164236
16 *1010:B *249:21 0.000277032
17 *58:10 *1071:RN 0
18 *58:10 *1100:I 5.70985e-05
19 *58:10 *1102:I 0
20 *58:10 *239:19 6.40893e-05
21 *58:10 *241:8 0.000186116
22 *58:10 *241:38 9.88736e-06
23 *1117:I *58:10 8.95196e-05
*RES
1 *1071:Q *58:10 12.344 
2 *58:10 *924:I 10.292 
3 *58:10 *1010:B 14.776 
*END

*D_NET *59 0.00386469
*CONN
*I *1058:D I *D gf180mcu_fd_sc_mcu7t5v0__dffrnq_1
*I *1019:ZN O *D gf180mcu_fd_sc_mcu7t5v0__aoi21_1
*CAP
1 *1058:D 0.000520398
2 *1019:ZN 0.000520398
3 *1058:D *925:I 0
4 *1058:D *930:B 0.000254643
5 *1058:D *1005:C 0
6 *1058:D *1006:A2 0.000108753
7 *1058:D *1012:B 1.97747e-05
8 *1058:D *1019:A1 5.09271e-05
9 *1058:D *1058:RN 0
10 *1058:D *1101:I 0.000135062
11 *1058:D *1137:I 2.6126e-05
12 *1058:D *83:12 0.00064872
13 *1058:D *139:10 0.000335667
14 *1058:D *146:18 0.000583403
15 *1058:D *195:8 0
16 *1058:D *237:14 0
17 *1058:D *241:44 2.4013e-05
18 *930:A1 *1058:D 4.4998e-05
19 *1006:A1 *1058:D 0.000204046
20 *38:16 *1058:D 0.000387757
*RES
1 *1019:ZN *1058:D 24.688 
*END

*D_NET *60 0.00123303
*CONN
*I *1059:D I *D gf180mcu_fd_sc_mcu7t5v0__dffrnq_1
*I *1021:ZN O *D gf180mcu_fd_sc_mcu7t5v0__aoi211_1
*CAP
1 *1059:D 0.000441806
2 *1021:ZN 0.000441806
3 *1059:D *1024:A2 0
4 *1059:D *1060:CLK 0.000344447
5 *1059:D *200:86 4.97386e-06
*RES
1 *1021:ZN *1059:D 20.964 
*END

*D_NET *61 0.00133962
*CONN
*I *1060:D I *D gf180mcu_fd_sc_mcu7t5v0__dffrnq_1
*I *1024:ZN O *D gf180mcu_fd_sc_mcu7t5v0__aoi211_1
*CAP
1 *1060:D 0.000593751
2 *1024:ZN 0.000593751
3 *1060:D *1024:A2 4.97386e-06
4 *1060:D *1024:B 9.37296e-06
5 *1060:D *1024:C 0.000137776
6 *40:14 *1060:D 0
*RES
1 *1024:ZN *1060:D 21.8 
*END

*D_NET *62 0.00138035
*CONN
*I *1061:D I *D gf180mcu_fd_sc_mcu7t5v0__dffsnq_1
*I *1030:Z O *D gf180mcu_fd_sc_mcu7t5v0__mux2_2
*CAP
1 *1061:D 0.000533983
2 *1030:Z 0.000533983
3 *1061:D *1074:CLK 0
4 *1061:D *1091:I 0
5 *1061:D *1092:I 3.64096e-05
6 *1061:D *196:52 0
7 *1061:D *196:68 0
8 *1061:D *198:30 0.00027597
*RES
1 *1030:Z *1061:D 12.8 
*END

*D_NET *63 0.000798076
*CONN
*I *1062:D I *D gf180mcu_fd_sc_mcu7t5v0__dffsnq_1
*I *1032:Z O *D gf180mcu_fd_sc_mcu7t5v0__mux2_2
*CAP
1 *1062:D 0.000399038
2 *1032:Z 0.000399038
3 *1062:D *1029:S 0
4 *1062:D *229:31 0
*RES
1 *1032:Z *1062:D 20.584 
*END

*D_NET *64 0.000632985
*CONN
*I *1063:D I *D gf180mcu_fd_sc_mcu7t5v0__dffsnq_1
*I *1034:Z O *D gf180mcu_fd_sc_mcu7t5v0__mux2_2
*CAP
1 *1063:D 0.000245544
2 *1034:Z 0.000245544
3 *1063:D *1034:I1 0.000141897
*RES
1 *1034:Z *1063:D 10.824 
*END

*D_NET *65 0.000324581
*CONN
*I *1064:D I *D gf180mcu_fd_sc_mcu7t5v0__dffsnq_1
*I *1036:Z O *D gf180mcu_fd_sc_mcu7t5v0__mux2_2
*CAP
1 *1064:D 0.000124652
2 *1036:Z 0.000124652
3 *1064:D *1036:I1 4.63109e-05
4 *1064:D *1064:CLK 2.89664e-05
*RES
1 *1036:Z *1064:D 9.836 
*END

*D_NET *66 0.00109646
*CONN
*I *1065:D I *D gf180mcu_fd_sc_mcu7t5v0__dffsnq_1
*I *1038:Z O *D gf180mcu_fd_sc_mcu7t5v0__mux2_2
*CAP
1 *1065:D 0.000520617
2 *1038:Z 0.000520617
3 *1065:D *1033:I0 4.79898e-05
4 *1065:D *1036:I1 0
5 *1065:D *1065:CLK 7.24161e-06
*RES
1 *1038:Z *1065:D 21.192 
*END

*D_NET *67 0.00119831
*CONN
*I *1066:D I *D gf180mcu_fd_sc_mcu7t5v0__dffsnq_1
*I *1040:Z O *D gf180mcu_fd_sc_mcu7t5v0__mux2_2
*CAP
1 *1066:D 0.000307191
2 *1040:Z 0.000307191
3 *1066:D *1043:A2 0.000305671
4 *1066:D *1067:CLK 4.58601e-06
5 *1066:D *1099:I 3.68724e-06
6 *1066:D *198:36 8.00153e-05
7 *1066:D *229:14 0.000135526
8 *1066:D *235:10 5.44396e-05
*RES
1 *1040:Z *1066:D 20.432 
*END

*D_NET *68 0.000317399
*CONN
*I *1067:D I *D gf180mcu_fd_sc_mcu7t5v0__dffsnq_1
*I *1044:Z O *D gf180mcu_fd_sc_mcu7t5v0__mux2_2
*CAP
1 *1067:D 0.000103364
2 *1044:Z 0.000103364
3 *1067:D *1029:I0 8.73421e-05
4 *1067:D *1067:CLK 2.333e-05
*RES
1 *1044:Z *1067:D 9.836 
*END

*D_NET *69 0.00118656
*CONN
*I *1068:D I *D gf180mcu_fd_sc_mcu7t5v0__dffsnq_1
*I *1046:ZN O *D gf180mcu_fd_sc_mcu7t5v0__aoi21_1
*CAP
1 *1068:D 0.000246397
2 *1046:ZN 0.000246397
3 *1068:D *1029:I0 0.000103428
4 *1068:D *1043:A1 0.000523951
5 *1068:D *156:16 0
6 *1068:D *156:26 0
7 *1068:D *198:30 7.24161e-06
8 *1068:D *198:36 5.91493e-05
*RES
1 *1046:ZN *1068:D 20.432 
*END

*D_NET *70 0.000575562
*CONN
*I *1069:D I *D gf180mcu_fd_sc_mcu7t5v0__dffrnq_1
*I *1048:ZN O *D gf180mcu_fd_sc_mcu7t5v0__clkinv_1
*CAP
1 *1069:D 0.000287781
2 *1048:ZN 0.000287781
*RES
1 *1048:ZN *1069:D 10.824 
*END

*D_NET *71 0.00119226
*CONN
*I *1070:D I *D gf180mcu_fd_sc_mcu7t5v0__dffrnq_1
*I *1052:ZN O *D gf180mcu_fd_sc_mcu7t5v0__aoi21_1
*CAP
1 *1070:D 0.000533881
2 *1052:ZN 0.000533881
3 *1070:D *1049:A2 0
4 *1070:D *1054:B2 0
5 *1070:D *1070:CLK 4.58601e-06
6 *1070:D *1071:D 0.000119913
7 *1070:D *232:12 0
*RES
1 *1052:ZN *1070:D 21.344 
*END

*D_NET *72 0.00172615
*CONN
*I *1071:D I *D gf180mcu_fd_sc_mcu7t5v0__dffrnq_1
*I *1054:ZN O *D gf180mcu_fd_sc_mcu7t5v0__oai22_1
*CAP
1 *1071:D 0.000745159
2 *1054:ZN 0.000745159
3 *1071:D *1054:A1 2.62311e-05
4 *1071:D *1070:CLK 5.26953e-05
5 *1071:D *239:23 3.69894e-05
6 *1070:D *1071:D 0.000119913
*RES
1 *1054:ZN *1071:D 22.712 
*END

*D_NET *73 0.00140331
*CONN
*I *1072:D I *D gf180mcu_fd_sc_mcu7t5v0__dffrnq_1
*I *1057:ZN O *D gf180mcu_fd_sc_mcu7t5v0__oai21_1
*CAP
1 *1072:D 0.000298091
2 *1057:ZN 0.000298091
3 *1072:D *1056:B 0.000317494
4 *1072:D *1057:A1 0.000317503
5 *1072:D *1057:A2 8.55327e-05
6 *1072:D *157:6 1.20079e-05
7 *1072:D *225:10 7.45907e-05
8 *40:69 *1072:D 0
*RES
1 *1057:ZN *1072:D 21.04 
*END

*D_NET *74 0.00906357
*CONN
*I *1014:A3 I *D gf180mcu_fd_sc_mcu7t5v0__nand4_1
*I *1021:A1 I *D gf180mcu_fd_sc_mcu7t5v0__aoi211_1
*I *1003:B I *D gf180mcu_fd_sc_mcu7t5v0__aoi211_1
*I *1007:A3 I *D gf180mcu_fd_sc_mcu7t5v0__nor3_1
*I *1026:A3 I *D gf180mcu_fd_sc_mcu7t5v0__nor4_1
*I *920:ZN O *D gf180mcu_fd_sc_mcu7t5v0__clkinv_1
*CAP
1 *1014:A3 6.09667e-05
2 *1021:A1 0.000389288
3 *1003:B 0
4 *1007:A3 0.000220752
5 *1026:A3 0.000258134
6 *920:ZN 4.7222e-05
7 *74:51 0.000957726
8 *74:29 0.000290508
9 *74:14 0.000502554
10 *74:8 0.000729356
11 *1007:A3 *1002:A2 6.9971e-06
12 *1007:A3 *1003:A1 0.000147305
13 *1007:A3 *1003:A2 2.96977e-05
14 *1007:A3 *1004:B2 4.10312e-05
15 *1007:A3 *1072:RN 7.78869e-05
16 *1014:A3 *1014:A4 0.000255722
17 *1021:A1 *1015:A2 0.000142801
18 *1021:A1 *75:15 0.000158368
19 *1021:A1 *75:19 0.000141803
20 *1021:A1 *148:14 7.54503e-05
21 *1021:A1 *177:8 6.54913e-05
22 *1021:A1 *177:21 2.59946e-05
23 *1021:A1 *213:10 8.15645e-05
24 *1026:A3 *1057:A1 0
25 *1026:A3 *1072:RN 6.57222e-06
26 *1026:A3 *247:8 0
27 *74:8 *241:38 3.4631e-05
28 *74:14 *1003:A1 1.28529e-05
29 *74:14 *1020:A1 0.000317494
30 *74:14 *1056:A2 0.000193942
31 *74:14 *1056:C 1.20079e-05
32 *74:14 *1057:B 6.79352e-05
33 *74:29 *1072:RN 0
34 *74:51 *955:A1 2.03965e-05
35 *74:51 *1014:A4 0.000137776
36 *74:51 *1016:A4 0.000462425
37 *74:51 *1140:I 5.09739e-06
38 *74:51 *178:25 3.48101e-05
39 *74:51 *241:38 8.52676e-05
40 *918:I *1021:A1 5.94709e-06
41 *919:I *74:14 6.17803e-05
42 *919:I *74:51 0
43 *1003:C *1007:A3 0.000147305
44 *1007:A1 *74:14 8.04139e-05
45 *1007:A2 *1007:A3 0.000308697
46 *1007:A2 *74:14 0.000259718
47 *38:51 *74:14 0.000291377
48 *39:12 *1014:A3 0.00010198
49 *39:12 *74:51 1.97747e-05
50 *39:20 *74:51 0.000260758
51 *39:26 *74:14 3.07734e-05
52 *39:32 *74:14 0.000114144
53 *40:45 *1021:A1 2.67391e-05
54 *40:45 *74:51 0.000853717
55 *40:65 *1026:A3 8.65627e-06
56 *40:65 *74:29 0.000253849
57 *40:67 *1026:A3 3.88692e-05
58 *40:69 *1026:A3 0.000101246
*RES
1 *920:ZN *74:8 9.38 
2 *74:8 *74:14 11.964 
3 *74:14 *1026:A3 10.672 
4 *74:14 *74:29 5.184 
5 *74:29 *1007:A3 7.008 
6 *74:29 *1003:B 4.5 
7 *74:8 *74:51 10.428 
8 *74:51 *1021:A1 16.768 
9 *74:51 *1014:A3 5.412 
*END

*D_NET *75 0.00501443
*CONN
*I *1024:C I *D gf180mcu_fd_sc_mcu7t5v0__aoi211_1
*I *1021:C I *D gf180mcu_fd_sc_mcu7t5v0__aoi211_1
*I *1019:B I *D gf180mcu_fd_sc_mcu7t5v0__aoi21_1
*I *955:A1 I *D gf180mcu_fd_sc_mcu7t5v0__nor2_1
*I *921:ZN O *D gf180mcu_fd_sc_mcu7t5v0__clkinv_1
*CAP
1 *1024:C 0.000171182
2 *1021:C 4.46124e-05
3 *1019:B 0.000335533
4 *955:A1 7.12978e-05
5 *921:ZN 0
6 *75:19 0.000661512
7 *75:15 0.000822034
8 *75:4 0.000440784
9 *955:A1 *1138:I 1.15275e-05
10 *955:A1 *1140:I 0.000306482
11 *1019:B *1013:A2 0.00011955
12 *1019:B *1020:A4 0
13 *1019:B *1021:B 1.0477e-05
14 *1019:B *146:27 2.57058e-06
15 *1019:B *147:8 0
16 *1021:C *1021:B 2.9378e-06
17 *1021:C *147:8 2.11395e-05
18 *1024:C *1017:A2 0.000201947
19 *1024:C *1023:A2 0.000147313
20 *1024:C *1024:A2 8.26254e-06
21 *1024:C *1024:B 4.46992e-06
22 *1024:C *147:8 2.40328e-06
23 *1024:C *148:14 0.000194378
24 *1024:C *177:21 8.02751e-06
25 *75:15 *1014:A4 8.06713e-05
26 *75:15 *1015:A2 6.31034e-05
27 *75:15 *1020:A1 4.04309e-05
28 *75:15 *145:14 1.36284e-05
29 *75:15 *213:10 3.3188e-05
30 *75:19 *145:14 2.97354e-06
31 *75:19 *145:16 9.17565e-06
32 *75:19 *145:20 4.24175e-05
33 *1021:A1 *75:15 0.000158368
34 *1021:A1 *75:19 0.000141803
35 *1060:D *1024:C 0.000137776
36 *40:45 *955:A1 0.000682059
37 *74:51 *955:A1 2.03965e-05
*RES
1 *921:ZN *75:4 4.5 
2 *75:4 *955:A1 6.4 
3 *75:4 *75:15 6.856 
4 *75:15 *75:19 6.248 
5 *75:19 *1019:B 6.932 
6 *75:19 *1021:C 4.88 
7 *75:15 *1024:C 10.748 
*END

*D_NET *76 0.00386745
*CONN
*I *1010:A2 I *D gf180mcu_fd_sc_mcu7t5v0__oai21_1
*I *1009:A2 I *D gf180mcu_fd_sc_mcu7t5v0__and2_1
*I *1050:B2 I *D gf180mcu_fd_sc_mcu7t5v0__oai32_1
*I *1047:S I *D gf180mcu_fd_sc_mcu7t5v0__mux2_2
*I *1049:A1 I *D gf180mcu_fd_sc_mcu7t5v0__or2_1
*I *922:ZN O *D gf180mcu_fd_sc_mcu7t5v0__clkinv_1
*CAP
1 *1010:A2 4.28956e-05
2 *1009:A2 5.67927e-05
3 *1050:B2 1.53886e-05
4 *1047:S 4.3438e-05
5 *1049:A1 6.77139e-05
6 *922:ZN 8.12767e-05
7 *76:45 0.00016527
8 *76:20 0.000264192
9 *76:16 0.000388113
10 *76:10 0.000366543
11 *1009:A2 *1050:A2 5.1289e-05
12 *1010:A2 *1009:A1 0.000305592
13 *1010:A2 *1050:A3 0.000422015
14 *1010:A2 *143:15 6.80238e-06
15 *1047:S *1051:A1 0
16 *1047:S *1052:A1 0
17 *1047:S *232:10 8.81478e-05
18 *1047:S *233:14 1.72912e-05
19 *1049:A1 *1052:A1 0
20 *1049:A1 *232:10 9.14616e-05
21 *1050:B2 *1051:A1 7.3227e-05
22 *1050:B2 *1051:A2 7.3227e-05
23 *76:10 *922:I 7.2627e-05
24 *76:10 *77:12 3.75951e-05
25 *76:16 *1050:A1 0
26 *76:16 *1050:A2 2.57058e-06
27 *76:16 *1050:A3 2.6126e-05
28 *76:16 *1051:A2 1.54747e-06
29 *76:16 *1052:A1 0.000140663
30 *76:16 *77:12 0.000298598
31 *76:16 *239:76 0.000124925
32 *76:20 *1047:I0 0.000129162
33 *76:20 *1049:A2 4.02664e-05
34 *76:20 *1051:A1 4.14758e-05
35 *76:20 *1052:A1 0.000135941
36 *76:45 *1050:A2 7.73917e-06
37 *76:45 *1050:A3 0.000186796
38 *76:45 *143:15 7.45328e-07
*RES
1 *922:ZN *76:10 14.184 
2 *76:10 *76:16 6.476 
3 *76:16 *76:20 5.944 
4 *76:20 *1049:A1 5.032 
5 *76:20 *1047:S 5.032 
6 *76:16 *1050:B2 9.228 
7 *76:10 *76:45 0.532 
8 *76:45 *1009:A2 5.032 
9 *76:45 *1010:A2 5.64 
*END

*D_NET *77 0.00242172
*CONN
*I *1050:B1 I *D gf180mcu_fd_sc_mcu7t5v0__oai32_1
*I *1052:A1 I *D gf180mcu_fd_sc_mcu7t5v0__aoi21_1
*I *923:ZN O *D gf180mcu_fd_sc_mcu7t5v0__clkinv_1
*CAP
1 *1050:B1 0
2 *1052:A1 0.000272498
3 *923:ZN 0.000212511
4 *77:12 0.000485009
5 *1052:A1 *922:I 0
6 *1052:A1 *1051:A1 0.000390255
7 *1052:A1 *1052:B 6.00599e-05
8 *1052:A1 *171:10 0.000135308
9 *1052:A1 *173:8 1.30476e-05
10 *1052:A1 *232:10 0
11 *77:12 *922:I 0
12 *77:12 *1008:A2 4.63008e-05
13 *77:12 *239:76 0.000193933
14 *1047:S *1052:A1 0
15 *1049:A1 *1052:A1 0
16 *76:10 *77:12 3.75951e-05
17 *76:16 *1052:A1 0.000140663
18 *76:16 *77:12 0.000298598
19 *76:20 *1052:A1 0.000135941
*RES
1 *923:ZN *77:12 11.052 
2 *77:12 *1052:A1 11.584 
3 *77:12 *1050:B1 9 
*END

*D_NET *78 0.000711675
*CONN
*I *1053:A2 I *D gf180mcu_fd_sc_mcu7t5v0__nand2_1
*I *1054:A1 I *D gf180mcu_fd_sc_mcu7t5v0__oai22_1
*I *924:ZN O *D gf180mcu_fd_sc_mcu7t5v0__clkinv_1
*CAP
1 *1053:A2 7.86623e-05
2 *1054:A1 0.000176046
3 *924:ZN 0
4 *78:4 0.000254709
5 *1053:A2 *1054:A2 0.000111867
6 *1053:A2 *239:76 3.8218e-05
7 *1054:A1 *1053:A1 2.59409e-05
8 *1071:D *1054:A1 2.62311e-05
*RES
1 *924:ZN *78:4 4.5 
2 *78:4 *1054:A1 14.488 
3 *78:4 *1053:A2 5.184 
*END

*D_NET *79 0.00200962
*CONN
*I *1056:A1 I *D gf180mcu_fd_sc_mcu7t5v0__oai211_1
*I *1026:A4 I *D gf180mcu_fd_sc_mcu7t5v0__nor4_1
*I *925:ZN O *D gf180mcu_fd_sc_mcu7t5v0__clkinv_1
*CAP
1 *1056:A1 1.62821e-05
2 *1026:A4 0.000184897
3 *925:ZN 0.00012605
4 *79:8 0.000327229
5 *1026:A4 *1056:B 0.000256
6 *1056:A1 *1056:A2 0.000158809
7 *1026:A2 *1026:A4 2.69101e-05
8 *38:25 *1056:A1 0.000188292
9 *38:25 *79:8 0.000723661
10 *39:32 *1026:A4 1.49066e-06
*RES
1 *925:ZN *79:8 10.748 
2 *79:8 *1026:A4 10.292 
3 *79:8 *1056:A1 9.532 
*END

*D_NET *80 0.00160792
*CONN
*I *1012:A1 I *D gf180mcu_fd_sc_mcu7t5v0__aoi21_1
*I *926:ZN O *D gf180mcu_fd_sc_mcu7t5v0__clkinv_1
*CAP
1 *1012:A1 0.000570687
2 *926:ZN 0.000570687
3 *1012:A1 *925:I 0.000149579
4 *1012:A1 *1137:I 5.86759e-05
5 *1012:A1 *82:12 0.00022052
6 *928:A1 *1012:A1 3.77705e-05
*RES
1 *926:ZN *1012:A1 12.952 
*END

*D_NET *81 0.00181808
*CONN
*I *1004:A2 I *D gf180mcu_fd_sc_mcu7t5v0__aoi22_1
*I *1001:A2 I *D gf180mcu_fd_sc_mcu7t5v0__nand2_1
*I *927:ZN O *D gf180mcu_fd_sc_mcu7t5v0__nor2_1
*CAP
1 *1004:A2 0.000135755
2 *1001:A2 8.19342e-05
3 *927:ZN 0
4 *81:4 0.00021769
5 *1001:A2 *1003:A1 2.95531e-05
6 *1001:A2 *178:25 0
7 *919:I *1001:A2 8.55242e-05
8 *919:I *1004:A2 1.42281e-05
9 *1007:A2 *1001:A2 1.33342e-06
10 *38:51 *1001:A2 0.00020108
11 *38:75 *1004:A2 0.000696461
12 *40:45 *1001:A2 3.91978e-05
13 *40:45 *1004:A2 0.000315328
*RES
1 *927:ZN *81:4 4.5 
2 *81:4 *1001:A2 5.412 
3 *81:4 *1004:A2 15.4 
*END

*D_NET *82 0.00705278
*CONN
*I *1137:I I *D gf180mcu_fd_sc_mcu7t5v0__clkbuf_1
*I *1041:A2 I *D gf180mcu_fd_sc_mcu7t5v0__aoi21_1
*I *1025:A2 I *D gf180mcu_fd_sc_mcu7t5v0__nand2_1
*I *928:ZN O *D gf180mcu_fd_sc_mcu7t5v0__nor3_1
*CAP
1 *1137:I 0.000269252
2 *1041:A2 2.66818e-05
3 *1025:A2 8.58016e-05
4 *928:ZN 0
5 *82:12 0.000868262
6 *82:4 0.00102503
7 *1025:A2 *1025:A1 0.000199473
8 *1025:A2 *1061:SETN 2.96621e-05
9 *1025:A2 *198:17 2.89888e-05
10 *1041:A2 *1030:I0 8.81341e-06
11 *1041:A2 *1061:SETN 7.83779e-05
12 *1137:I *925:I 6.03906e-05
13 *1137:I *1012:B 0.000185475
14 *1137:I *139:10 0.000438681
15 *1137:I *146:18 2.89467e-05
16 *82:12 *926:I 0.00029375
17 *82:12 *1025:A1 0.000188292
18 *82:12 *1072:CLK 7.34023e-05
19 *82:12 *198:15 4.13816e-05
20 *82:12 *198:17 0.00013415
21 *82:12 *225:16 0.00203416
22 *928:A1 *1137:I 3.00299e-05
23 *928:A1 *82:12 0.000142505
24 *1006:A1 *1137:I 0.000111039
25 *1012:A1 *1137:I 5.86759e-05
26 *1012:A1 *82:12 0.00022052
27 *1058:D *1137:I 2.6126e-05
28 *38:16 *1137:I 0.000287979
29 *38:16 *82:12 2.6126e-05
30 *40:75 *82:12 5.08139e-05
*RES
1 *928:ZN *82:4 4.5 
2 *82:4 *82:12 13.392 
3 *82:12 *1025:A2 9.76 
4 *82:12 *1041:A2 9.228 
5 *82:4 *1137:I 16.844 
*END

*D_NET *83 0.00551555
*CONN
*I *996:C I *D gf180mcu_fd_sc_mcu7t5v0__oai221_1
*I *956:B I *D gf180mcu_fd_sc_mcu7t5v0__oai21_1
*I *954:A1 I *D gf180mcu_fd_sc_mcu7t5v0__and2_1
*I *930:ZN O *D gf180mcu_fd_sc_mcu7t5v0__aoi21_1
*CAP
1 *996:C 6.10988e-05
2 *956:B 0.000215029
3 *954:A1 2.41129e-05
4 *930:ZN 0.000344636
5 *83:12 0.000522679
6 *954:A1 *954:A2 2.96621e-05
7 *954:A1 *997:B 1.02578e-05
8 *954:A1 *103:16 5.09739e-06
9 *954:A1 *200:16 9.88736e-06
10 *956:B *954:A2 7.04842e-05
11 *956:B *997:A2 0.000592685
12 *956:B *997:B 0.000178858
13 *956:B *1098:I 2.6126e-05
14 *996:C *996:A2 1.75856e-05
15 *996:C *997:B 0.000524263
16 *996:C *1098:I 0.000794212
17 *83:12 *930:B 1.2994e-05
18 *83:12 *954:A2 1.04712e-05
19 *83:12 *997:A2 2.59502e-05
20 *83:12 *1087:RN 0.000161612
21 *83:12 *200:16 0.000834717
22 *83:12 *240:16 0
23 *83:12 *241:44 6.55118e-05
24 *83:12 *241:46 2.65777e-05
25 *930:A1 *83:12 5.37472e-05
26 *930:A2 *83:12 0.000248576
27 *1058:D *83:12 0.00064872
*RES
1 *930:ZN *83:12 18.668 
2 *83:12 *954:A1 4.728 
3 *83:12 *956:B 6.552 
4 *956:B *996:C 11.052 
*END

*D_NET *84 0.00395522
*CONN
*I *951:A1 I *D gf180mcu_fd_sc_mcu7t5v0__nor4_1
*I *931:Z O *D gf180mcu_fd_sc_mcu7t5v0__xor2_1
*CAP
1 *951:A1 0.00061269
2 *931:Z 0.00061269
3 *951:A1 *931:A2 0
4 *951:A1 *936:A1 0.00021136
5 *951:A1 *946:A1 0.000768797
6 *951:A1 *951:A2 0.00019207
7 *951:A1 *994:A1 0.00014967
8 *951:A1 *994:A2 0.000238682
9 *951:A1 *1000:A1 0.000378617
10 *951:A1 *1085:RN 0
11 *951:A1 *182:16 2.26535e-05
12 *951:A1 *236:24 0
13 *951:A1 *240:44 0.000654756
14 *25:18 *951:A1 0.000113238
*RES
1 *931:Z *951:A1 25.144 
*END

*D_NET *85 0.00130576
*CONN
*I *950:A1 I *D gf180mcu_fd_sc_mcu7t5v0__nand4_1
*I *932:ZN O *D gf180mcu_fd_sc_mcu7t5v0__xnor2_1
*CAP
1 *950:A1 0.000623208
2 *932:ZN 0.000623208
3 *950:A1 *950:A4 5.67782e-05
4 *950:A1 *103:16 2.57058e-06
5 *950:A1 *196:6 0
6 *950:A1 *196:15 0
7 *1090:I *950:A1 0
*RES
1 *932:ZN *950:A1 12.952 
*END

*D_NET *86 0.00273785
*CONN
*I *952:A1 I *D gf180mcu_fd_sc_mcu7t5v0__nand4_1
*I *933:ZN O *D gf180mcu_fd_sc_mcu7t5v0__xnor2_1
*CAP
1 *952:A1 0.000857563
2 *933:ZN 0.000857563
3 *952:A1 *932:A1 2.22657e-05
4 *952:A1 *951:A3 0.000568916
5 *952:A1 *105:14 0.000431543
6 *952:A1 *230:24 0
*RES
1 *933:ZN *952:A1 15.688 
*END

*D_NET *87 0.00306838
*CONN
*I *947:A1 I *D gf180mcu_fd_sc_mcu7t5v0__nor2_1
*I *934:Z O *D gf180mcu_fd_sc_mcu7t5v0__xor2_1
*CAP
1 *947:A1 0.000598314
2 *934:Z 0.000598314
3 *947:A1 *934:A1 7.45328e-07
4 *947:A1 *952:A3 0.000413688
5 *947:A1 *1077:CLK 0
6 *947:A1 *1080:RN 0.000327924
7 *947:A1 *1080:CLK 0.000526238
8 *947:A1 *105:14 0.000267495
9 *947:A1 *192:8 0
10 *947:A1 *199:14 0.000335667
*RES
1 *934:Z *947:A1 24.992 
*END

*D_NET *88 0.00120515
*CONN
*I *949:A1 I *D gf180mcu_fd_sc_mcu7t5v0__nor4_1
*I *935:Z O *D gf180mcu_fd_sc_mcu7t5v0__xor2_1
*CAP
1 *949:A1 0.000218481
2 *935:Z 0.000218481
3 *949:A1 *935:A2 0.000450852
4 *949:A1 *941:A2 7.45417e-06
5 *949:A1 *949:A3 0.000238886
6 *949:A1 *949:A4 9.88736e-06
7 *949:A1 *969:A2 1.97747e-05
8 *949:A1 *977:A2 9.17202e-06
9 *949:A1 *190:19 9.88736e-06
10 *949:A1 *191:26 2.22758e-05
*RES
1 *935:Z *949:A1 19.976 
*END

*D_NET *89 0.00145268
*CONN
*I *950:A2 I *D gf180mcu_fd_sc_mcu7t5v0__nand4_1
*I *936:ZN O *D gf180mcu_fd_sc_mcu7t5v0__xnor2_1
*CAP
1 *950:A2 0.000289927
2 *936:ZN 0.000289927
3 *950:A2 *950:A3 7.59884e-05
4 *950:A2 *953:A1 0
5 *950:A2 *103:16 0
6 *950:A2 *105:14 0.000115082
7 *950:A2 *105:22 7.2647e-05
8 *950:A2 *196:15 7.60086e-05
9 *950:A2 *240:16 0.000533098
*RES
1 *936:ZN *950:A2 20.964 
*END

*D_NET *90 0.00313845
*CONN
*I *951:A2 I *D gf180mcu_fd_sc_mcu7t5v0__nor4_1
*I *937:Z O *D gf180mcu_fd_sc_mcu7t5v0__xor2_1
*CAP
1 *951:A2 0.000673868
2 *937:Z 0.000673868
3 *951:A2 *944:A2 1.93526e-05
4 *951:A2 *946:A1 7.95076e-05
5 *951:A2 *947:A2 0.00026286
6 *951:A2 *951:A4 7.37718e-05
7 *951:A2 *991:A1 0.000187671
8 *951:A2 *182:16 0.000166082
9 *951:A2 *240:44 0.000654756
10 *951:A1 *951:A2 0.00019207
11 *25:18 *951:A2 0.000154637
*RES
1 *937:Z *951:A2 24.536 
*END

*D_NET *91 0.0016679
*CONN
*I *952:A2 I *D gf180mcu_fd_sc_mcu7t5v0__nand4_1
*I *938:ZN O *D gf180mcu_fd_sc_mcu7t5v0__xnor2_1
*CAP
1 *952:A2 0.000541153
2 *938:ZN 0.000541153
3 *952:A2 *938:A1 1.72912e-05
4 *952:A2 *951:A3 4.28511e-05
5 *952:A2 *951:A4 2.17248e-05
6 *952:A2 *952:A4 0.000349279
7 *952:A2 *105:14 0.000154451
*RES
1 *938:ZN *952:A2 13.484 
*END

*D_NET *92 0.00709391
*CONN
*I *951:A3 I *D gf180mcu_fd_sc_mcu7t5v0__nor4_1
*I *939:Z O *D gf180mcu_fd_sc_mcu7t5v0__xor2_1
*CAP
1 *951:A3 0.00102962
2 *939:Z 0.00102962
3 *951:A3 *932:A1 0.000538099
4 *951:A3 *947:A2 0.00204853
5 *951:A3 *950:A4 0.000173123
6 *951:A3 *951:A4 1.5015e-05
7 *951:A3 *952:A4 0.00091505
8 *951:A3 *1075:CLK 1.91222e-05
9 *951:A3 *1077:RN 4.50449e-05
10 *951:A3 *105:14 3.45824e-05
11 *951:A3 *112:10 5.49899e-05
12 *951:A3 *240:25 0.000322807
13 *951:A3 *240:44 3.42838e-05
14 *952:A1 *951:A3 0.000568916
15 *952:A2 *951:A3 4.28511e-05
16 *1090:I *951:A3 4.615e-05
17 *25:18 *951:A3 0.000176106
*RES
1 *939:Z *951:A3 31.756 
*END

*D_NET *93 0.000689828
*CONN
*I *942:A1 I *D gf180mcu_fd_sc_mcu7t5v0__nor2_1
*I *940:Z O *D gf180mcu_fd_sc_mcu7t5v0__xor2_1
*CAP
1 *942:A1 3.18212e-05
2 *940:Z 3.18212e-05
3 *942:A1 *948:A2 0.000376901
4 *942:A1 *230:87 0.000147305
5 *942:A1 *230:104 0.00010198
*RES
1 *940:Z *942:A1 9.988 
*END

*D_NET *94 0.00130916
*CONN
*I *942:A2 I *D gf180mcu_fd_sc_mcu7t5v0__nor2_1
*I *941:Z O *D gf180mcu_fd_sc_mcu7t5v0__xor2_1
*CAP
1 *942:A2 0.000504668
2 *941:Z 0.000504668
3 *942:A2 *940:A1 1.5015e-05
4 *942:A2 *941:A1 4.58601e-06
5 *942:A2 *948:A1 9.65141e-05
6 *942:A2 *230:87 0.000183704
*RES
1 *941:Z *942:A2 12.648 
*END

*D_NET *95 0.0034607
*CONN
*I *952:A3 I *D gf180mcu_fd_sc_mcu7t5v0__nand4_1
*I *942:ZN O *D gf180mcu_fd_sc_mcu7t5v0__nor2_1
*CAP
1 *952:A3 0.00102889
2 *942:ZN 0.00102889
3 *952:A3 *978:A1 6.01522e-05
4 *952:A3 *1080:CLK 0.000364359
5 *952:A3 *120:18 0.00056472
6 *947:A1 *952:A3 0.000413688
*RES
1 *942:ZN *952:A3 27.956 
*END

*D_NET *96 0.00250598
*CONN
*I *949:A2 I *D gf180mcu_fd_sc_mcu7t5v0__nor4_1
*I *943:Z O *D gf180mcu_fd_sc_mcu7t5v0__xor2_1
*CAP
1 *949:A2 0.00105246
2 *943:Z 0.00105246
3 *949:A2 *943:A1 0
4 *949:A2 *957:A2 4.71012e-05
5 *949:A2 *973:A1 6.50181e-05
6 *949:A2 *974:A2 0.00012914
7 *949:A2 *977:A2 0.000141274
8 *949:A2 *1078:RN 0
9 *949:A2 *190:12 0
10 *949:A2 *190:19 1.85223e-05
11 *949:A2 *230:79 0
12 *949:A2 *238:105 0
13 *1079:D *949:A2 0
*RES
1 *943:Z *949:A2 15.536 
*END

*D_NET *97 0.00251255
*CONN
*I *951:A4 I *D gf180mcu_fd_sc_mcu7t5v0__nor4_1
*I *944:Z O *D gf180mcu_fd_sc_mcu7t5v0__xor2_1
*CAP
1 *951:A4 0.000441663
2 *944:Z 0.000441663
3 *951:A4 *938:A1 1.20079e-05
4 *951:A4 *944:A2 9.13382e-05
5 *951:A4 *947:A2 0.000106097
6 *951:A4 *991:A1 0.000672539
7 *951:A4 *991:A2 0.00025625
8 *951:A4 *992:A2 3.00299e-05
9 *951:A4 *236:12 0.000303305
10 *951:A2 *951:A4 7.37718e-05
11 *951:A3 *951:A4 1.5015e-05
12 *952:A2 *951:A4 2.17248e-05
13 *1085:D *951:A4 4.71447e-05
*RES
1 *944:Z *951:A4 13.788 
*END

*D_NET *98 0.00112654
*CONN
*I *949:A3 I *D gf180mcu_fd_sc_mcu7t5v0__nor4_1
*I *945:Z O *D gf180mcu_fd_sc_mcu7t5v0__xor2_1
*CAP
1 *949:A3 0.000246387
2 *945:Z 0.000246387
3 *949:A3 *935:A2 1.8976e-05
4 *949:A3 *941:A2 5.00729e-05
5 *949:A3 *949:A4 5.91468e-05
6 *949:A3 *969:A2 1.49066e-06
7 *949:A3 *977:A2 0.00013063
8 *949:A3 *191:26 0.000134564
9 *949:A1 *949:A3 0.000238886
*RES
1 *945:Z *949:A3 20.052 
*END

*D_NET *99 0.00397219
*CONN
*I *947:A2 I *D gf180mcu_fd_sc_mcu7t5v0__nor2_1
*I *946:Z O *D gf180mcu_fd_sc_mcu7t5v0__xor2_1
*CAP
1 *947:A2 0.000264233
2 *946:Z 0.000264233
3 *947:A2 *240:44 0.00102624
4 *951:A2 *947:A2 0.00026286
5 *951:A3 *947:A2 0.00204853
6 *951:A4 *947:A2 0.000106097
*RES
1 *946:Z *947:A2 15.764 
*END

*D_NET *100 0.000878216
*CONN
*I *950:A3 I *D gf180mcu_fd_sc_mcu7t5v0__nand4_1
*I *947:ZN O *D gf180mcu_fd_sc_mcu7t5v0__nor2_1
*CAP
1 *950:A3 0.000302758
2 *947:ZN 0.000302758
3 *950:A3 *105:14 1.46098e-05
4 *950:A3 *189:8 8.8425e-05
5 *950:A2 *950:A3 7.59884e-05
6 *25:18 *950:A3 9.36782e-05
*RES
1 *947:ZN *950:A3 20.128 
*END

*D_NET *101 0.00180906
*CONN
*I *949:A4 I *D gf180mcu_fd_sc_mcu7t5v0__nor4_1
*I *948:Z O *D gf180mcu_fd_sc_mcu7t5v0__xor2_1
*CAP
1 *949:A4 0.00038008
2 *948:Z 0.00038008
3 *949:A4 *941:A2 6.0538e-05
4 *949:A4 *977:A2 0.000527142
5 *949:A4 *978:A3 0.000386421
6 *949:A4 *191:26 5.76373e-06
7 *949:A4 *230:87 0
8 *949:A1 *949:A4 9.88736e-06
9 *949:A3 *949:A4 5.91468e-05
*RES
1 *948:Z *949:A4 12.648 
*END

*D_NET *102 0.00395913
*CONN
*I *950:A4 I *D gf180mcu_fd_sc_mcu7t5v0__nand4_1
*I *949:ZN O *D gf180mcu_fd_sc_mcu7t5v0__nor4_1
*CAP
1 *950:A4 0.00140762
2 *949:ZN 0.00140762
3 *950:A4 *932:A1 0
4 *950:A4 *935:A2 4.07251e-05
5 *950:A4 *941:A2 3.40956e-05
6 *950:A4 *972:A1 5.3501e-05
7 *950:A4 *189:18 0.00040532
8 *950:A4 *230:87 2.69281e-06
9 *950:A1 *950:A4 5.67782e-05
10 *951:A3 *950:A4 0.000173123
11 *1090:I *950:A4 8.37794e-05
12 *25:18 *950:A4 0.000293889
*RES
1 *949:ZN *950:A4 29.704 
*END

*D_NET *103 0.00512677
*CONN
*I *953:A1 I *D gf180mcu_fd_sc_mcu7t5v0__nor2_1
*I *996:A1 I *D gf180mcu_fd_sc_mcu7t5v0__oai221_1
*I *956:A1 I *D gf180mcu_fd_sc_mcu7t5v0__oai21_1
*I *950:ZN O *D gf180mcu_fd_sc_mcu7t5v0__nand4_1
*CAP
1 *953:A1 8.09422e-05
2 *996:A1 0.000177552
3 *956:A1 0
4 *950:ZN 0.000120279
5 *103:16 0.000518033
6 *103:6 0.000541702
7 *953:A1 *196:15 4.63008e-05
8 *996:A1 *956:A2 1.15275e-05
9 *996:A1 *996:A2 0.000493809
10 *996:A1 *997:B 0.000696669
11 *103:16 *997:A1 1.97747e-05
12 *103:16 *997:A2 1.04712e-05
13 *103:16 *997:B 0.000759213
14 *103:16 *1097:I 0.00152311
15 *103:16 *1098:I 7.83779e-05
16 *103:16 *196:15 3.14479e-05
17 *103:16 *200:16 9.88736e-06
18 *950:A1 *103:16 2.57058e-06
19 *950:A2 *953:A1 0
20 *950:A2 *103:16 0
21 *954:A1 *103:16 5.09739e-06
*RES
1 *950:ZN *103:6 5.336 
2 *103:6 *103:16 13.788 
3 *103:16 *956:A1 4.5 
4 *103:16 *996:A1 7.616 
5 *103:6 *953:A1 5.032 
*END

*D_NET *104 0.00249675
*CONN
*I *952:A4 I *D gf180mcu_fd_sc_mcu7t5v0__nand4_1
*I *951:ZN O *D gf180mcu_fd_sc_mcu7t5v0__nor4_1
*CAP
1 *952:A4 0.000616211
2 *951:ZN 0.000616211
3 *952:A4 *199:44 0
4 *951:A3 *952:A4 0.00091505
5 *952:A2 *952:A4 0.000349279
*RES
1 *951:ZN *952:A4 23.396 
*END

*D_NET *105 0.00542764
*CONN
*I *953:A2 I *D gf180mcu_fd_sc_mcu7t5v0__nor2_1
*I *956:A2 I *D gf180mcu_fd_sc_mcu7t5v0__oai21_1
*I *996:A2 I *D gf180mcu_fd_sc_mcu7t5v0__oai221_1
*I *952:ZN O *D gf180mcu_fd_sc_mcu7t5v0__nand4_1
*CAP
1 *953:A2 0
2 *956:A2 2.47333e-05
3 *996:A2 0.000304247
4 *952:ZN 0.000585241
5 *105:22 0.000604562
6 *105:14 0.000860821
7 *996:A2 *936:A1 0.000189673
8 *996:A2 *997:B 0
9 *996:A2 *1093:I 0.000113955
10 *996:A2 *1098:I 3.55306e-05
11 *996:A2 *196:19 9.91191e-05
12 *105:14 *1080:RN 0.000387757
13 *105:14 *189:8 2.18892e-05
14 *105:14 *196:15 5.76063e-06
15 *105:14 *240:16 0
16 *105:22 *936:A1 3.08902e-05
17 *105:22 *997:A1 2.98542e-05
18 *105:22 *1087:CLK 2.57058e-06
19 *105:22 *1097:I 0.000104176
20 *105:22 *1098:I 2.74753e-05
21 *105:22 *184:14 7.7322e-05
22 *105:22 *240:16 0.000308737
23 *947:A1 *105:14 0.000267495
24 *950:A2 *105:14 0.000115082
25 *950:A2 *105:22 7.2647e-05
26 *950:A3 *105:14 1.46098e-05
27 *951:A3 *105:14 3.45824e-05
28 *952:A1 *105:14 0.000431543
29 *952:A2 *105:14 0.000154451
30 *996:A1 *956:A2 1.15275e-05
31 *996:A1 *996:A2 0.000493809
32 *996:C *996:A2 1.75856e-05
33 *1087:D *956:A2 0
34 *25:18 *105:14 0
*RES
1 *952:ZN *105:14 18.896 
2 *105:14 *105:22 11.888 
3 *105:22 *996:A2 8.224 
4 *105:22 *956:A2 4.728 
5 *105:14 *953:A2 4.5 
*END

*D_NET *106 0.00235726
*CONN
*I *954:A2 I *D gf180mcu_fd_sc_mcu7t5v0__and2_1
*I *953:ZN O *D gf180mcu_fd_sc_mcu7t5v0__nor2_1
*CAP
1 *954:A2 0.000311652
2 *953:ZN 0.000311652
3 *954:A2 *997:A1 7.95952e-05
4 *954:A2 *997:A2 0.000608681
5 *954:A2 *1097:I 9.77316e-05
6 *954:A2 *240:16 0.000837332
7 *954:A1 *954:A2 2.96621e-05
8 *956:B *954:A2 7.04842e-05
9 *83:12 *954:A2 1.04712e-05
*RES
1 *953:ZN *954:A2 22.104 
*END

*D_NET *107 0.00792685
*CONN
*I *1098:I I *D gf180mcu_fd_sc_mcu7t5v0__dlyb_1
*I *1097:I I *D gf180mcu_fd_sc_mcu7t5v0__dlyb_1
*I *956:ZN O *D gf180mcu_fd_sc_mcu7t5v0__oai21_1
*CAP
1 *1098:I 0.00104877
2 *1097:I 0.000584715
3 *956:ZN 0
4 *107:4 0.00163349
5 *1097:I *997:A1 0.000466126
6 *1097:I *997:A2 1.20889e-05
7 *1097:I *189:8 1.45899e-05
8 *1097:I *240:16 0.000190363
9 *1098:I *931:A2 4.29996e-05
10 *1098:I *936:A1 2.97083e-05
11 *1098:I *995:A3 1.09164e-05
12 *1098:I *997:A2 0.000376448
13 *1098:I *997:B 5.23776e-05
14 *1098:I *999:A2 2.7871e-05
15 *1098:I *132:8 3.94946e-05
16 *1098:I *132:25 0.000301101
17 *1098:I *184:14 0.000260709
18 *1098:I *200:43 3.53241e-05
19 *954:A2 *1097:I 9.77316e-05
20 *956:B *1098:I 2.6126e-05
21 *996:A2 *1098:I 3.55306e-05
22 *996:C *1098:I 0.000794212
23 *1087:D *1097:I 0.000113011
24 *103:16 *1097:I 0.00152311
25 *103:16 *1098:I 7.83779e-05
26 *105:22 *1097:I 0.000104176
27 *105:22 *1098:I 2.74753e-05
*RES
1 *956:ZN *107:4 4.5 
2 *107:4 *1097:I 20.34 
3 *107:4 *1098:I 22.696 
*END

*D_NET *108 0.000360111
*CONN
*I *959:A2 I *D gf180mcu_fd_sc_mcu7t5v0__nor2_1
*I *958:ZN O *D gf180mcu_fd_sc_mcu7t5v0__xnor2_1
*CAP
1 *959:A2 0.000159365
2 *958:ZN 0.000159365
3 *959:A2 *932:A2 4.1381e-05
4 *959:A2 *958:A2 0
*RES
1 *958:ZN *959:A2 10.064 
*END

*D_NET *109 0.00279681
*CONN
*I *962:A2 I *D gf180mcu_fd_sc_mcu7t5v0__nor3_1
*I *963:A2 I *D gf180mcu_fd_sc_mcu7t5v0__and2_1
*I *965:A2 I *D gf180mcu_fd_sc_mcu7t5v0__nor2_1
*I *960:Z O *D gf180mcu_fd_sc_mcu7t5v0__and3_1
*CAP
1 *962:A2 0
2 *963:A2 6.16518e-05
3 *965:A2 8.67414e-05
4 *960:Z 0.00013093
5 *109:12 0.000235261
6 *109:8 0.000217798
7 *963:A2 *1075:CLK 0.000545567
8 *963:A2 *188:23 0.000241507
9 *965:A2 *939:A1 0.000116459
10 *965:A2 *965:A1 0
11 *965:A2 *966:A3 8.95196e-05
12 *965:A2 *179:38 0.000253849
13 *109:8 *961:A2 4.14495e-05
14 *109:8 *962:A3 5.71374e-05
15 *109:8 *188:23 8.81341e-06
16 *109:8 *230:32 0.00032464
17 *109:12 *965:A1 0
18 *109:12 *179:38 0.000380904
19 *109:12 *188:10 0
20 *1075:D *109:8 4.58601e-06
*RES
1 *960:Z *109:8 5.868 
2 *109:8 *109:12 5.488 
3 *109:12 *965:A2 10.216 
4 *109:12 *963:A2 10.444 
5 *109:8 *962:A2 4.5 
*END

*D_NET *110 0.000399003
*CONN
*I *962:A3 I *D gf180mcu_fd_sc_mcu7t5v0__nor3_1
*I *961:ZN O *D gf180mcu_fd_sc_mcu7t5v0__aoi21_1
*CAP
1 *962:A3 0.000146961
2 *961:ZN 0.000146961
3 *962:A3 *961:A2 1.79695e-05
4 *962:A3 *179:38 2.99743e-05
5 *962:A3 *187:29 0
6 *109:8 *962:A3 5.71374e-05
*RES
1 *961:ZN *962:A3 10.292 
*END

*D_NET *111 0.00284018
*CONN
*I *966:A2 I *D gf180mcu_fd_sc_mcu7t5v0__nor3_1
*I *971:A2 I *D gf180mcu_fd_sc_mcu7t5v0__aoi21_1
*I *963:Z O *D gf180mcu_fd_sc_mcu7t5v0__and2_1
*CAP
1 *966:A2 0.000156721
2 *971:A2 0.000355256
3 *963:Z 5.8236e-05
4 *111:8 0.000570213
5 *966:A2 *939:A1 8.74915e-05
6 *966:A2 *230:49 0.000164236
7 *971:A2 *933:A1 0.00050272
8 *971:A2 *973:A1 0.00015399
9 *971:A2 *1078:RN 0.000181447
10 *971:A2 *230:38 0
11 *971:A2 *230:49 0.00046552
12 *971:A2 *230:79 5.0907e-05
13 *111:8 *933:A1 9.34472e-05
14 *111:8 *230:38 0
*RES
1 *963:Z *111:8 9.684 
2 *111:8 *971:A2 14.32 
3 *111:8 *966:A2 10.444 
*END

*D_NET *112 0.00717895
*CONN
*I *967:A2 I *D gf180mcu_fd_sc_mcu7t5v0__xor2_1
*I *989:A1 I *D gf180mcu_fd_sc_mcu7t5v0__nor4_1
*I *976:A1 I *D gf180mcu_fd_sc_mcu7t5v0__nor3_1
*I *970:A1 I *D gf180mcu_fd_sc_mcu7t5v0__nor2_1
*I *964:ZN O *D gf180mcu_fd_sc_mcu7t5v0__nand4_1
*CAP
1 *967:A2 0.000189415
2 *989:A1 0.000128459
3 *976:A1 1.80246e-05
4 *970:A1 0.000154532
5 *964:ZN 0.000632903
6 *112:18 0.000263203
7 *112:14 0.000743725
8 *112:10 0.00134694
9 *967:A2 *967:A1 0.00025334
10 *967:A2 *968:A2 1.95806e-05
11 *970:A1 *989:A2 0
12 *970:A1 *115:8 1.72912e-05
13 *970:A1 *115:19 0.000123469
14 *970:A1 *120:18 6.15433e-05
15 *976:A1 *115:19 2.23385e-05
16 *976:A1 *120:18 9.88736e-06
17 *989:A1 *989:A2 0.000203296
18 *989:A1 *1080:RN 0.000199573
19 *989:A1 *115:19 1.34504e-05
20 *989:A1 *120:18 0.000891518
21 *112:10 *933:A1 9.58397e-05
22 *112:10 *933:A2 8.02751e-06
23 *112:10 *939:A2 6.77492e-05
24 *112:10 *968:A1 0.000123561
25 *112:10 *968:A2 3.00299e-05
26 *112:10 *1075:CLK 0
27 *112:10 *189:18 5.77483e-05
28 *112:10 *230:24 0.000164347
29 *112:14 *934:A1 3.19219e-05
30 *112:14 *1080:RN 9.40591e-05
31 *112:14 *189:8 5.43763e-05
32 *112:14 *189:18 0.000262996
33 *112:14 *192:16 0.00033338
34 *112:18 *192:16 0.000199473
35 *951:A3 *112:10 5.49899e-05
36 *1077:D *967:A2 5.22519e-05
37 *1077:D *112:10 0.000255714
*RES
1 *964:ZN *112:10 9.744 
2 *112:10 *112:14 8.832 
3 *112:14 *112:18 5.032 
4 *112:18 *970:A1 5.868 
5 *112:18 *976:A1 4.728 
6 *112:14 *989:A1 11.356 
7 *112:10 *967:A2 6.02 
*END

*D_NET *113 0.000293071
*CONN
*I *966:A3 I *D gf180mcu_fd_sc_mcu7t5v0__nor3_1
*I *965:ZN O *D gf180mcu_fd_sc_mcu7t5v0__nor2_1
*CAP
1 *966:A3 7.43492e-05
2 *965:ZN 7.43492e-05
3 *966:A3 *939:A1 8.0352e-06
4 *965:A2 *966:A3 8.95196e-05
5 *1076:D *966:A3 4.6818e-05
*RES
1 *965:ZN *966:A3 9.684 
*END

*D_NET *114 0.00111949
*CONN
*I *968:A2 I *D gf180mcu_fd_sc_mcu7t5v0__nor2_1
*I *967:Z O *D gf180mcu_fd_sc_mcu7t5v0__xor2_1
*CAP
1 *968:A2 0.000249692
2 *967:Z 0.000249692
3 *968:A2 *967:A1 6.39906e-05
4 *968:A2 *1077:CLK 6.63909e-05
5 *968:A2 *189:18 0.000202842
6 *967:A2 *968:A2 1.95806e-05
7 *1077:D *968:A2 0.000237275
8 *112:10 *968:A2 3.00299e-05
*RES
1 *967:Z *968:A2 11.584 
*END

*D_NET *115 0.00231309
*CONN
*I *989:A2 I *D gf180mcu_fd_sc_mcu7t5v0__nor4_1
*I *976:A2 I *D gf180mcu_fd_sc_mcu7t5v0__nor3_1
*I *970:A2 I *D gf180mcu_fd_sc_mcu7t5v0__nor2_1
*I *969:ZN O *D gf180mcu_fd_sc_mcu7t5v0__nand2_1
*CAP
1 *989:A2 0.000270725
2 *976:A2 0
3 *970:A2 0
4 *969:ZN 0.000143827
5 *115:19 0.000520946
6 *115:8 0.000394049
7 *989:A2 *989:A3 0.000172407
8 *989:A2 *1080:RN 0.000206711
9 *989:A2 *120:18 7.24161e-06
10 *115:8 *975:A1 7.18046e-05
11 *115:8 *116:12 5.48085e-05
12 *115:8 *191:34 5.20098e-06
13 *115:19 *975:A1 4.18464e-05
14 *115:19 *976:A3 1.27895e-05
15 *115:19 *977:B 0
16 *115:19 *989:A3 3.08902e-05
17 *970:A1 *989:A2 0
18 *970:A1 *115:8 1.72912e-05
19 *970:A1 *115:19 0.000123469
20 *976:A1 *115:19 2.23385e-05
21 *989:A1 *989:A2 0.000203296
22 *989:A1 *115:19 1.34504e-05
*RES
1 *969:ZN *115:8 5.716 
2 *115:8 *970:A2 4.5 
3 *115:8 *115:19 1.9 
4 *115:19 *976:A2 4.5 
5 *115:19 *989:A2 7.008 
*END

*D_NET *116 0.00506279
*CONN
*I *972:A2 I *D gf180mcu_fd_sc_mcu7t5v0__nor3_1
*I *977:A2 I *D gf180mcu_fd_sc_mcu7t5v0__aoi21_1
*I *973:A2 I *D gf180mcu_fd_sc_mcu7t5v0__xnor2_1
*I *970:ZN O *D gf180mcu_fd_sc_mcu7t5v0__nor2_1
*CAP
1 *972:A2 0
2 *977:A2 0.000423387
3 *973:A2 0
4 *970:ZN 0.000616716
5 *116:18 0.000641348
6 *116:12 0.000834677
7 *977:A2 *969:A2 3.12886e-06
8 *977:A2 *973:A1 1.26428e-05
9 *977:A2 *977:A1 2.46622e-05
10 *977:A2 *978:A3 2.6126e-05
11 *977:A2 *190:19 0
12 *977:A2 *191:26 3.34313e-05
13 *977:A2 *191:34 6.29287e-05
14 *116:12 *971:A1 6.3744e-05
15 *116:12 *972:A3 1.3758e-05
16 *116:12 *191:34 0
17 *116:18 *932:A1 0.00100856
18 *116:18 *933:A1 0
19 *949:A1 *977:A2 9.17202e-06
20 *949:A2 *977:A2 0.000141274
21 *949:A3 *977:A2 0.00013063
22 *949:A4 *977:A2 0.000527142
23 *1078:D *116:18 0.000434655
24 *115:8 *116:12 5.48085e-05
*RES
1 *970:ZN *116:12 8.148 
2 *116:12 *116:18 11.66 
3 *116:18 *973:A2 4.5 
4 *116:18 *977:A2 8.376 
5 *116:12 *972:A2 4.5 
*END

*D_NET *117 0.000303096
*CONN
*I *972:A3 I *D gf180mcu_fd_sc_mcu7t5v0__nor3_1
*I *971:ZN O *D gf180mcu_fd_sc_mcu7t5v0__aoi21_1
*CAP
1 *972:A3 0.00013779
2 *971:ZN 0.00013779
3 *972:A3 *971:A1 1.3758e-05
4 *116:12 *972:A3 1.3758e-05
*RES
1 *971:ZN *972:A3 9.988 
*END

*D_NET *118 0.00104219
*CONN
*I *974:A2 I *D gf180mcu_fd_sc_mcu7t5v0__nor2_1
*I *973:ZN O *D gf180mcu_fd_sc_mcu7t5v0__xnor2_1
*CAP
1 *974:A2 0.000349898
2 *973:ZN 0.000349898
3 *974:A2 *190:12 0.000109303
4 *974:A2 *230:79 0.000103946
5 *949:A2 *974:A2 0.00012914
*RES
1 *973:ZN *974:A2 11.66 
*END

*D_NET *119 0.00101515
*CONN
*I *989:A3 I *D gf180mcu_fd_sc_mcu7t5v0__nor4_1
*I *976:A3 I *D gf180mcu_fd_sc_mcu7t5v0__nor3_1
*I *975:ZN O *D gf180mcu_fd_sc_mcu7t5v0__nand2_1
*CAP
1 *989:A3 0.000342007
2 *976:A3 0.00039953
3 *975:ZN 5.75237e-05
4 *989:A2 *989:A3 0.000172407
5 *115:19 *976:A3 1.27895e-05
6 *115:19 *989:A3 3.08902e-05
*RES
1 *975:ZN *976:A3 9.38 
2 *976:A3 *989:A3 11.28 
*END

*D_NET *120 0.00894973
*CONN
*I *981:A3 I *D gf180mcu_fd_sc_mcu7t5v0__and3_1
*I *979:A2 I *D gf180mcu_fd_sc_mcu7t5v0__xnor2_1
*I *982:A2 I *D gf180mcu_fd_sc_mcu7t5v0__aoi21_1
*I *978:A2 I *D gf180mcu_fd_sc_mcu7t5v0__nor3_1
*I *976:ZN O *D gf180mcu_fd_sc_mcu7t5v0__nor3_1
*CAP
1 *981:A3 0.000362502
2 *979:A2 0.000404997
3 *982:A2 6.39358e-05
4 *978:A2 0
5 *976:ZN 0.000795627
6 *120:36 0.000880408
7 *120:25 0.0007092
8 *120:18 0.00132798
9 *979:A2 *940:A2 2.46401e-06
10 *979:A2 *982:A1 0
11 *979:A2 *983:A3 5.39056e-05
12 *979:A2 *990:A1 5.32398e-05
13 *979:A2 *990:A2 4.13547e-05
14 *979:A2 *193:34 7.45328e-07
15 *979:A2 *230:104 0.000376071
16 *981:A3 *940:A2 7.94518e-06
17 *981:A3 *981:A2 0.000502416
18 *981:A3 *990:A1 0.000404056
19 *981:A3 *990:A3 0.000882884
20 *981:A3 *129:8 8.81341e-06
21 *981:A3 *194:18 3.51174e-05
22 *120:18 *948:A2 0
23 *120:18 *192:8 3.74244e-05
24 *120:18 *192:16 8.81341e-06
25 *120:25 *940:A2 0
26 *120:25 *948:A2 8.55692e-05
27 *120:25 *978:A3 2.6126e-05
28 *120:36 *948:A2 0
29 *120:36 *982:A1 0.000285199
30 *120:36 *230:104 0
31 *952:A3 *120:18 0.00056472
32 *970:A1 *120:18 6.15433e-05
33 *976:A1 *120:18 9.88736e-06
34 *989:A1 *120:18 0.000891518
35 *989:A2 *120:18 7.24161e-06
36 *1084:D *979:A2 5.8027e-05
*RES
1 *976:ZN *120:18 20.264 
2 *120:18 *978:A2 4.5 
3 *120:18 *120:25 3.268 
4 *120:25 *982:A2 4.88 
5 *120:25 *120:36 5.488 
6 *120:36 *979:A2 12.42 
7 *120:36 *981:A3 12.8 
*END

*D_NET *121 0.00171576
*CONN
*I *978:A3 I *D gf180mcu_fd_sc_mcu7t5v0__nor3_1
*I *977:ZN O *D gf180mcu_fd_sc_mcu7t5v0__aoi21_1
*CAP
1 *978:A3 0.000584748
2 *977:ZN 0.000584748
3 *978:A3 *934:A1 0
4 *978:A3 *948:A2 2.90524e-05
5 *978:A3 *977:B 3.01323e-05
6 *978:A3 *191:34 0
7 *978:A3 *230:87 0
8 *949:A4 *978:A3 0.000386421
9 *977:A2 *978:A3 2.6126e-05
10 *1080:D *978:A3 4.84093e-05
11 *120:25 *978:A3 2.6126e-05
*RES
1 *977:ZN *978:A3 21.8 
*END

*D_NET *122 0.000727463
*CONN
*I *980:A2 I *D gf180mcu_fd_sc_mcu7t5v0__nor2_1
*I *979:ZN O *D gf180mcu_fd_sc_mcu7t5v0__xnor2_1
*CAP
1 *980:A2 0.00022568
2 *979:ZN 0.00022568
3 *980:A2 *980:A1 0.000266216
4 *980:A2 *1082:RN 0
5 *980:A2 *230:104 9.88736e-06
*RES
1 *979:ZN *980:A2 10.748 
*END

*D_NET *123 0.00485572
*CONN
*I *984:A2 I *D gf180mcu_fd_sc_mcu7t5v0__nor2_1
*I *985:A2 I *D gf180mcu_fd_sc_mcu7t5v0__and2_1
*I *987:A2 I *D gf180mcu_fd_sc_mcu7t5v0__aoi21_1
*I *983:A2 I *D gf180mcu_fd_sc_mcu7t5v0__nor3_1
*I *981:Z O *D gf180mcu_fd_sc_mcu7t5v0__and3_1
*CAP
1 *984:A2 9.60482e-05
2 *985:A2 0.000146258
3 *987:A2 0
4 *983:A2 0.000291739
5 *981:Z 0
6 *123:12 0.000344472
7 *123:8 0.000315582
8 *123:4 0.000212639
9 *983:A2 *983:A3 2.96621e-05
10 *983:A2 *990:A2 0.000409896
11 *983:A2 *1084:CLK 0
12 *983:A2 *199:52 0.0011669
13 *984:A2 *986:A2 3.08902e-05
14 *984:A2 *990:A1 5.14116e-06
15 *985:A2 *985:A1 6.00689e-05
16 *985:A2 *986:A1 7.83779e-05
17 *985:A2 *986:A3 8.18373e-05
18 *985:A2 *193:10 3.83835e-06
19 *985:A2 *193:12 7.67669e-06
20 *123:8 *986:A1 0.000125479
21 *123:8 *986:A2 9.57233e-06
22 *123:8 *990:A1 5.4883e-05
23 *123:8 *193:12 8.29149e-06
24 *123:12 *990:A2 6.35236e-05
25 *123:12 *180:16 0.000562328
26 *123:12 *199:52 0.000750612
*RES
1 *981:Z *123:4 4.5 
2 *123:4 *123:8 0.912 
3 *123:8 *123:12 6.4 
4 *123:12 *983:A2 12.344 
5 *123:12 *987:A2 9 
6 *123:8 *985:A2 5.716 
7 *123:4 *984:A2 5.26 
*END

*D_NET *124 0.00179058
*CONN
*I *983:A3 I *D gf180mcu_fd_sc_mcu7t5v0__nor3_1
*I *982:ZN O *D gf180mcu_fd_sc_mcu7t5v0__aoi21_1
*CAP
1 *983:A3 0.000595872
2 *982:ZN 0.000595872
3 *983:A3 *940:A2 0.000158735
4 *983:A3 *1084:CLK 0
5 *983:A3 *230:104 0.000309384
6 *979:A2 *983:A3 5.39056e-05
7 *983:A2 *983:A3 2.96621e-05
8 *1084:D *983:A3 4.71484e-05
*RES
1 *982:ZN *983:A3 22.56 
*END

*D_NET *125 0.00139721
*CONN
*I *986:A2 I *D gf180mcu_fd_sc_mcu7t5v0__nor3_1
*I *984:ZN O *D gf180mcu_fd_sc_mcu7t5v0__nor2_1
*CAP
1 *986:A2 0.00014595
2 *984:ZN 0.00014595
3 *986:A2 *984:A1 0.00018513
4 *986:A2 *985:A1 6.92115e-05
5 *986:A2 *986:A1 3.5453e-06
6 *986:A2 *199:48 8.8425e-05
7 *986:A2 *199:52 0.000321954
8 *986:A2 *240:61 0.000387765
9 *984:A2 *986:A2 3.08902e-05
10 *1083:D *986:A2 8.81341e-06
11 *123:8 *986:A2 9.57233e-06
*RES
1 *984:ZN *986:A2 19.976 
*END

*D_NET *126 0.000245315
*CONN
*I *986:A3 I *D gf180mcu_fd_sc_mcu7t5v0__nor3_1
*I *985:Z O *D gf180mcu_fd_sc_mcu7t5v0__and2_1
*CAP
1 *986:A3 5.85832e-05
2 *985:Z 5.85832e-05
3 *986:A3 *193:10 4.63109e-05
4 *985:A2 *986:A3 8.18373e-05
*RES
1 *985:Z *986:A3 9.532 
*END

*D_NET *127 0.00171274
*CONN
*I *990:A2 I *D gf180mcu_fd_sc_mcu7t5v0__nor3_1
*I *987:ZN O *D gf180mcu_fd_sc_mcu7t5v0__aoi21_1
*CAP
1 *990:A2 0.000293359
2 *987:ZN 0.000293359
3 *990:A2 *982:A1 0.000611244
4 *979:A2 *990:A2 4.13547e-05
5 *983:A2 *990:A2 0.000409896
6 *123:12 *990:A2 6.35236e-05
*RES
1 *987:ZN *990:A2 20.888 
*END

*D_NET *128 0.00151148
*CONN
*I *989:A4 I *D gf180mcu_fd_sc_mcu7t5v0__nor4_1
*I *988:ZN O *D gf180mcu_fd_sc_mcu7t5v0__nand4_1
*CAP
1 *989:A4 0.000509976
2 *988:ZN 0.000509976
3 *989:A4 *948:A2 0
4 *989:A4 *981:A2 0.000317503
5 *989:A4 *129:8 8.19302e-05
6 *989:A4 *194:12 1.5015e-05
7 *989:A4 *194:16 7.70843e-05
*RES
1 *988:ZN *989:A4 12.724 
*END

*D_NET *129 0.00504104
*CONN
*I *1142:I I *D gf180mcu_fd_sc_mcu7t5v0__dlyb_1
*I *990:A3 I *D gf180mcu_fd_sc_mcu7t5v0__nor3_1
*I *989:ZN O *D gf180mcu_fd_sc_mcu7t5v0__nor4_1
*CAP
1 *1142:I 0.000689617
2 *990:A3 0.000169063
3 *989:ZN 0.000636608
4 *129:8 0.00149529
5 *990:A3 *990:A1 0.000944121
6 *1142:I *199:44 8.17308e-05
7 *129:8 *981:A2 5.09899e-05
8 *981:A3 *990:A3 0.000882884
9 *981:A3 *129:8 8.81341e-06
10 *989:A4 *129:8 8.19302e-05
*RES
1 *989:ZN *129:8 13.028 
2 *129:8 *990:A3 11.964 
3 *129:8 *1142:I 13.864 
*END

*D_NET *130 0.000755937
*CONN
*I *992:A2 I *D gf180mcu_fd_sc_mcu7t5v0__nor2_1
*I *991:ZN O *D gf180mcu_fd_sc_mcu7t5v0__xnor2_1
*CAP
1 *992:A2 7.07913e-05
2 *991:ZN 7.07913e-05
3 *992:A2 *991:A2 0.000235713
4 *992:A2 *231:23 4.72007e-05
5 *992:A2 *236:12 0.000193448
6 *951:A4 *992:A2 3.00299e-05
7 *1085:D *992:A2 0.000107962
*RES
1 *991:ZN *992:A2 10.292 
*END

*D_NET *131 0.00272424
*CONN
*I *995:A2 I *D gf180mcu_fd_sc_mcu7t5v0__nor3_1
*I *993:ZN O *D gf180mcu_fd_sc_mcu7t5v0__aoi21_1
*CAP
1 *995:A2 0.000414294
2 *993:ZN 0.000414294
3 *995:A2 *936:A1 0.000481067
4 *995:A2 *993:A1 1.67178e-05
5 *995:A2 *993:A2 4.97558e-05
6 *995:A2 *994:A1 0.000137785
7 *995:A2 *995:A1 0.000191711
8 *995:A2 *1000:A1 0.00023197
9 *995:A2 *1085:RN 2.9801e-05
10 *995:A2 *1086:RN 7.90729e-05
11 *995:A2 *182:10 5.66745e-05
12 *995:A2 *183:17 0
13 *995:A2 *231:6 0.000317445
14 *995:A2 *231:12 8.8425e-05
15 *995:A2 *236:24 0.000215228
*RES
1 *993:ZN *995:A2 22.712 
*END

*D_NET *132 0.00989357
*CONN
*I *998:A2 I *D gf180mcu_fd_sc_mcu7t5v0__aoi21_1
*I *999:A3 I *D gf180mcu_fd_sc_mcu7t5v0__and3_1
*I *996:B1 I *D gf180mcu_fd_sc_mcu7t5v0__oai221_1
*I *997:A2 I *D gf180mcu_fd_sc_mcu7t5v0__aoi21_1
*I *995:A3 I *D gf180mcu_fd_sc_mcu7t5v0__nor3_1
*I *994:Z O *D gf180mcu_fd_sc_mcu7t5v0__and3_1
*CAP
1 *998:A2 0.000227224
2 *999:A3 0
3 *996:B1 0
4 *997:A2 0.000377459
5 *995:A3 5.24417e-05
6 *994:Z 0.000287296
7 *132:25 0.000555226
8 *132:23 0.00021363
9 *132:19 0.00040349
10 *132:8 0.000480141
11 *995:A3 *936:A1 0.000201027
12 *997:A2 *997:A1 7.52811e-05
13 *997:A2 *184:38 0.000910634
14 *997:A2 *196:15 0
15 *997:A2 *200:16 2.4706e-05
16 *998:A2 *998:A1 0.000253394
17 *998:A2 *1088:CLK 2.9378e-06
18 *998:A2 *185:14 0.000118095
19 *998:A2 *200:59 4.39941e-05
20 *132:8 *931:A2 0
21 *132:8 *936:A1 0.000932049
22 *132:19 *1086:RN 0.000115959
23 *132:19 *185:14 1.28891e-05
24 *132:23 *999:A2 0.000161136
25 *132:23 *184:47 2.6126e-05
26 *132:23 *200:59 5.88975e-06
27 *132:25 *999:A2 2.6126e-05
28 *132:25 *184:38 3.08902e-05
29 *132:25 *184:47 0.00124479
30 *954:A2 *997:A2 0.000608681
31 *956:B *997:A2 0.000592685
32 *1086:D *998:A2 5.43763e-05
33 *1086:D *132:19 0.00082557
34 *1086:D *132:23 7.32209e-05
35 *1087:D *997:A2 0.000179736
36 *1097:I *997:A2 1.20889e-05
37 *1098:I *995:A3 1.09164e-05
38 *1098:I *997:A2 0.000376448
39 *1098:I *132:8 3.94946e-05
40 *1098:I *132:25 0.000301101
41 *83:12 *997:A2 2.59502e-05
42 *103:16 *997:A2 1.04712e-05
*RES
1 *994:Z *132:8 7.388 
2 *132:8 *995:A3 5.032 
3 *132:8 *132:19 6.552 
4 *132:19 *132:23 5.032 
5 *132:23 *132:25 3.268 
6 *132:25 *997:A2 19.2 
7 *132:25 *996:B1 4.5 
8 *132:23 *999:A3 4.5 
9 *132:19 *998:A2 11.28 
*END

*D_NET *133 0.00278798
*CONN
*I *997:B I *D gf180mcu_fd_sc_mcu7t5v0__aoi21_1
*I *996:ZN O *D gf180mcu_fd_sc_mcu7t5v0__oai221_1
*CAP
1 *997:B 0.000283169
2 *996:ZN 0.000283169
3 *954:A1 *997:B 1.02578e-05
4 *956:B *997:B 0.000178858
5 *996:A1 *997:B 0.000696669
6 *996:A2 *997:B 0
7 *996:C *997:B 0.000524263
8 *1098:I *997:B 5.23776e-05
9 *103:16 *997:B 0.000759213
*RES
1 *996:ZN *997:B 13.636 
*END

*D_NET *134 0.00115966
*CONN
*I *1000:A2 I *D gf180mcu_fd_sc_mcu7t5v0__nor3_1
*I *998:ZN O *D gf180mcu_fd_sc_mcu7t5v0__aoi21_1
*CAP
1 *1000:A2 0.000542747
2 *998:ZN 0.000542747
3 *1000:A2 *1000:A3 0
4 *1000:A2 *1088:RN 0
5 *1000:A2 *1088:CLK 7.41674e-05
*RES
1 *998:ZN *1000:A2 21.344 
*END

*D_NET *135 0.00149923
*CONN
*I *1000:A3 I *D gf180mcu_fd_sc_mcu7t5v0__nor3_1
*I *999:Z O *D gf180mcu_fd_sc_mcu7t5v0__and3_1
*CAP
1 *1000:A3 0.000354352
2 *999:Z 0.000354352
3 *1000:A3 *931:A2 4.8993e-05
4 *1000:A3 *1088:CLK 0.000103936
5 *1000:A3 *200:59 8.06016e-05
6 *1000:A2 *1000:A3 0
7 *1086:D *1000:A3 0.000125453
8 *1088:D *1000:A3 0.000431543
*RES
1 *999:Z *1000:A3 12.192 
*END

*D_NET *136 0.00444079
*CONN
*I *1020:A1 I *D gf180mcu_fd_sc_mcu7t5v0__and4_1
*I *1056:A2 I *D gf180mcu_fd_sc_mcu7t5v0__oai211_1
*I *1001:ZN O *D gf180mcu_fd_sc_mcu7t5v0__nand2_1
*CAP
1 *1020:A1 0.00016307
2 *1056:A2 0.000178601
3 *1001:ZN 0.000341672
4 *1020:A1 *1003:A1 5.76373e-06
5 *1020:A1 *1022:A1 0.000869347
6 *1020:A1 *145:14 0.000260709
7 *1020:A1 *177:21 2.6126e-05
8 *1020:A1 *178:25 0.0014671
9 *1056:A1 *1056:A2 0.000158809
10 *38:25 *1056:A2 2.47642e-05
11 *38:36 *1056:A2 0.00013979
12 *39:26 *1020:A1 0.000206855
13 *39:32 *1056:A2 4.63109e-05
14 *74:14 *1020:A1 0.000317494
15 *74:14 *1056:A2 0.000193942
16 *75:15 *1020:A1 4.04309e-05
*RES
1 *1001:ZN *1056:A2 19.824 
2 *1001:ZN *1020:A1 22.712 
*END

*D_NET *137 0.00041266
*CONN
*I *1004:B1 I *D gf180mcu_fd_sc_mcu7t5v0__aoi22_1
*I *1002:ZN O *D gf180mcu_fd_sc_mcu7t5v0__nand2_1
*CAP
1 *1004:B1 8.96992e-05
2 *1002:ZN 8.96992e-05
3 *1004:B1 *1004:B2 5.29084e-05
4 *1002:A1 *1004:B1 0.000180353
*RES
1 *1002:ZN *1004:B1 10.064 
*END

*D_NET *138 0.000744615
*CONN
*I *1004:B2 I *D gf180mcu_fd_sc_mcu7t5v0__aoi22_1
*I *1003:ZN O *D gf180mcu_fd_sc_mcu7t5v0__aoi211_1
*CAP
1 *1004:B2 0.000201847
2 *1003:ZN 0.000201847
3 *1004:B2 *1002:A2 3.07734e-05
4 *1004:B2 *1003:A1 2.6126e-05
5 *1002:A1 *1004:B2 0
6 *1003:C *1004:B2 9.27021e-05
7 *1004:B1 *1004:B2 5.29084e-05
8 *1007:A3 *1004:B2 4.10312e-05
9 *40:54 *1004:B2 9.73789e-05
*RES
1 *1003:ZN *1004:B2 10.976 
*END

*D_NET *139 0.0026606
*CONN
*I *1006:A2 I *D gf180mcu_fd_sc_mcu7t5v0__nand2_1
*I *1012:B I *D gf180mcu_fd_sc_mcu7t5v0__aoi21_1
*I *1005:ZN O *D gf180mcu_fd_sc_mcu7t5v0__aoi211_1
*CAP
1 *1006:A2 7.90782e-05
2 *1012:B 0.000146773
3 *1005:ZN 8.01396e-05
4 *139:10 0.000305991
5 *1006:A2 *241:38 0.000103782
6 *1006:A2 *241:44 2.59502e-05
7 *1012:B *925:I 4.58601e-06
8 *1012:B *1012:A2 1.66121e-06
9 *1012:B *146:18 4.38725e-05
10 *139:10 *1005:C 0.000483795
11 *139:10 *241:44 0.000108139
12 *1006:A1 *1006:A2 0.000130987
13 *1058:D *1006:A2 0.000108753
14 *1058:D *1012:B 1.97747e-05
15 *1058:D *139:10 0.000335667
16 *1137:I *1012:B 0.000185475
17 *1137:I *139:10 0.000438681
18 *38:16 *139:10 5.74961e-05
*RES
1 *1005:ZN *139:10 11.432 
2 *139:10 *1012:B 10.292 
3 *139:10 *1006:A2 10.14 
*END

*D_NET *140 0.00146876
*CONN
*I *1019:A1 I *D gf180mcu_fd_sc_mcu7t5v0__aoi21_1
*I *1006:ZN O *D gf180mcu_fd_sc_mcu7t5v0__nand2_1
*CAP
1 *1019:A1 0.000391886
2 *1006:ZN 0.000391886
3 *1019:A1 *1012:A2 0.000122115
4 *1019:A1 *146:18 0.000242715
5 *1019:A1 *237:8 0.000246965
6 *1006:A1 *1019:A1 2.22657e-05
7 *1058:D *1019:A1 5.09271e-05
*RES
1 *1006:ZN *1019:A1 12.268 
*END

*D_NET *141 0.00187199
*CONN
*I *1011:B I *D gf180mcu_fd_sc_mcu7t5v0__oai31_1
*I *1007:ZN O *D gf180mcu_fd_sc_mcu7t5v0__nor3_1
*CAP
1 *1011:B 0.000377992
2 *1007:ZN 0.000377992
3 *1011:B *1003:A2 8.55327e-05
4 *1011:B *1011:A2 0
5 *1011:B *1027:A1 0
6 *1011:B *1072:RN 0
7 *1011:B *1135:I 5.19077e-05
8 *1011:B *233:10 0.000947793
9 *1007:A1 *1011:B 3.07734e-05
*RES
1 *1007:ZN *1011:B 12.8 
*END

*D_NET *142 0.002978
*CONN
*I *1011:A1 I *D gf180mcu_fd_sc_mcu7t5v0__oai31_1
*I *1027:A1 I *D gf180mcu_fd_sc_mcu7t5v0__oai31_1
*I *1050:A1 I *D gf180mcu_fd_sc_mcu7t5v0__oai32_1
*I *1008:Z O *D gf180mcu_fd_sc_mcu7t5v0__xor2_1
*CAP
1 *1011:A1 8.87548e-05
2 *1027:A1 5.86422e-05
3 *1050:A1 0.000144254
4 *1008:Z 0.000114912
5 *142:21 0.000221999
6 *142:10 0.000333768
7 *1011:A1 *1011:A2 0.00011955
8 *1011:A1 *1072:RN 0
9 *1011:A1 *233:10 6.77492e-05
10 *1011:A1 *233:14 1.44832e-05
11 *1027:A1 *233:14 4.50449e-05
12 *1050:A1 *1050:A2 0.000269008
13 *1050:A1 *143:15 0.000175821
14 *1050:A1 *233:14 0.000111199
15 *142:10 *922:I 0.000209309
16 *142:10 *1069:RN 0.000553172
17 *142:10 *201:8 0
18 *142:21 *1011:A2 3.00299e-05
19 *142:21 *143:15 0.000369754
20 *142:21 *233:14 5.05494e-05
21 *1011:B *1027:A1 0
22 *76:16 *1050:A1 0
*RES
1 *1008:Z *142:10 15.248 
2 *142:10 *1050:A1 6.324 
3 *142:10 *142:21 1.14 
4 *142:21 *1027:A1 5.108 
5 *142:21 *1011:A1 5.488 
*END

*D_NET *143 0.00195539
*CONN
*I *1011:A2 I *D gf180mcu_fd_sc_mcu7t5v0__oai31_1
*I *1027:A2 I *D gf180mcu_fd_sc_mcu7t5v0__oai31_1
*I *1050:A2 I *D gf180mcu_fd_sc_mcu7t5v0__oai32_1
*I *1009:Z O *D gf180mcu_fd_sc_mcu7t5v0__and2_1
*CAP
1 *1011:A2 0.000106767
2 *1027:A2 0
3 *1050:A2 0.000135383
4 *1009:Z 0
5 *143:15 0.000221838
6 *143:4 0.000250454
7 *1011:A2 *1009:A1 2.17248e-05
8 *1011:A2 *1011:A3 3.04115e-05
9 *1011:A2 *1027:A3 9.81031e-05
10 *1011:A2 *144:19 2.57058e-06
11 *143:15 *1009:A1 5.48282e-05
12 *1009:A2 *1050:A2 5.1289e-05
13 *1010:A2 *143:15 6.80238e-06
14 *1011:A1 *1011:A2 0.00011955
15 *1011:B *1011:A2 0
16 *1050:A1 *1050:A2 0.000269008
17 *1050:A1 *143:15 0.000175821
18 *76:16 *1050:A2 2.57058e-06
19 *76:45 *1050:A2 7.73917e-06
20 *76:45 *143:15 7.45328e-07
21 *142:21 *1011:A2 3.00299e-05
22 *142:21 *143:15 0.000369754
*RES
1 *1009:Z *143:4 4.5 
2 *143:4 *1050:A2 5.868 
3 *143:4 *143:15 1.444 
4 *143:15 *1027:A2 4.5 
5 *143:15 *1011:A2 5.792 
*END

*D_NET *144 0.00221717
*CONN
*I *1011:A3 I *D gf180mcu_fd_sc_mcu7t5v0__oai31_1
*I *1027:A3 I *D gf180mcu_fd_sc_mcu7t5v0__oai31_1
*I *1050:A3 I *D gf180mcu_fd_sc_mcu7t5v0__oai32_1
*I *1010:ZN O *D gf180mcu_fd_sc_mcu7t5v0__oai21_1
*CAP
1 *1011:A3 4.27415e-05
2 *1027:A3 9.09389e-05
3 *1050:A3 6.47805e-05
4 *1010:ZN 0
5 *144:19 0.000274338
6 *144:4 0.000205438
7 *1011:A3 *1072:RN 1.64988e-05
8 *1050:A3 *1072:RN 7.195e-05
9 *1050:A3 *239:76 0.000414869
10 *144:19 *1009:A1 8.23984e-05
11 *144:19 *1010:A1 8.55242e-05
12 *144:19 *1072:RN 0.000101674
13 *1010:A2 *1050:A3 0.000422015
14 *1011:A2 *1011:A3 3.04115e-05
15 *1011:A2 *1027:A3 9.81031e-05
16 *1011:A2 *144:19 2.57058e-06
17 *76:16 *1050:A3 2.6126e-05
18 *76:45 *1050:A3 0.000186796
*RES
1 *1010:ZN *144:4 4.5 
2 *144:4 *1050:A3 6.096 
3 *144:4 *144:19 1.52 
4 *144:19 *1027:A3 5.108 
5 *144:19 *1011:A3 4.88 
*END

*D_NET *145 0.00700819
*CONN
*I *1020:A2 I *D gf180mcu_fd_sc_mcu7t5v0__and4_1
*I *1023:A1 I *D gf180mcu_fd_sc_mcu7t5v0__and4_1
*I *1013:A1 I *D gf180mcu_fd_sc_mcu7t5v0__nand2_1
*I *1018:A1 I *D gf180mcu_fd_sc_mcu7t5v0__nand3_1
*I *1011:ZN O *D gf180mcu_fd_sc_mcu7t5v0__oai31_1
*CAP
1 *1020:A2 0
2 *1023:A1 7.43142e-05
3 *1013:A1 0
4 *1018:A1 7.21637e-05
5 *1011:ZN 0.00227593
6 *145:20 0.000234497
7 *145:16 0.000272885
8 *145:14 0.00231216
9 *1018:A1 *1013:A2 0.00026286
10 *1018:A1 *1020:A4 0
11 *1018:A1 *146:50 0
12 *1023:A1 *1020:A4 8.55327e-05
13 *1023:A1 *1023:A2 0.000407791
14 *1023:A1 *146:50 8.55327e-05
15 *1023:A1 *147:8 8.08741e-05
16 *145:14 *1020:A4 0.000220026
17 *145:14 *226:14 0
18 *145:14 *240:118 0
19 *145:16 *1020:A4 0.000117908
20 *145:20 *1013:A2 2.77542e-05
21 *145:20 *1020:A4 8.84331e-05
22 *145:20 *146:50 6.06214e-05
23 *1020:A1 *145:14 0.000260709
24 *75:15 *145:14 1.36284e-05
25 *75:19 *145:14 2.97354e-06
26 *75:19 *145:16 9.17565e-06
27 *75:19 *145:20 4.24175e-05
*RES
1 *1011:ZN *145:14 30.92 
2 *145:14 *145:16 0.38 
3 *145:16 *145:20 5.792 
4 *145:20 *1018:A1 5.184 
5 *145:20 *1013:A1 4.5 
6 *145:16 *1023:A1 10.292 
7 *145:14 *1020:A2 9 
*END

*D_NET *146 0.00487704
*CONN
*I *1023:A2 I *D gf180mcu_fd_sc_mcu7t5v0__and4_1
*I *1020:A3 I *D gf180mcu_fd_sc_mcu7t5v0__and4_1
*I *1013:A2 I *D gf180mcu_fd_sc_mcu7t5v0__nand2_1
*I *1018:A2 I *D gf180mcu_fd_sc_mcu7t5v0__nand3_1
*I *1012:ZN O *D gf180mcu_fd_sc_mcu7t5v0__aoi21_1
*CAP
1 *1023:A2 3.31556e-05
2 *1020:A3 0
3 *1013:A2 0.000103879
4 *1018:A2 0
5 *1012:ZN 0.000415088
6 *146:50 0.000254041
7 *146:27 0.000352802
8 *146:18 0.000443125
9 *1013:A2 *1019:A2 3.17618e-05
10 *1023:A2 *1017:A2 0.000132001
11 *146:18 *1012:A2 7.99628e-05
12 *146:18 *1017:A1 0
13 *146:18 *1019:A2 7.79113e-05
14 *146:18 *226:8 0
15 *146:18 *237:8 0.000246965
16 *146:18 *240:8 0.000286574
17 *146:27 *1017:A1 0
18 *146:50 *1017:A1 9.88736e-06
19 *146:50 *1017:A2 0.000129078
20 *146:50 *1018:A3 0.000222333
21 *146:50 *1020:A4 3.82992e-05
22 *146:50 *1023:A4 7.24161e-06
23 *146:50 *226:8 0
24 *146:50 *240:8 0
25 *146:50 *240:118 0
26 *1012:B *146:18 4.38725e-05
27 *1018:A1 *1013:A2 0.00026286
28 *1018:A1 *146:50 0
29 *1019:A1 *146:18 0.000242715
30 *1019:B *1013:A2 0.00011955
31 *1019:B *146:27 2.57058e-06
32 *1023:A1 *1023:A2 0.000407791
33 *1023:A1 *146:50 8.55327e-05
34 *1024:C *1023:A2 0.000147313
35 *1058:D *146:18 0.000583403
36 *1137:I *146:18 2.89467e-05
37 *145:20 *1013:A2 2.77542e-05
38 *145:20 *146:50 6.06214e-05
*RES
1 *1012:ZN *146:18 18.44 
2 *146:18 *1018:A2 4.5 
3 *146:18 *146:27 4.728 
4 *146:27 *1013:A2 10.444 
5 *146:27 *146:50 6.78 
6 *146:50 *1020:A3 4.5 
7 *146:50 *1023:A2 5.64 
*END

*D_NET *147 0.00112148
*CONN
*I *1024:A2 I *D gf180mcu_fd_sc_mcu7t5v0__aoi211_1
*I *1021:A2 I *D gf180mcu_fd_sc_mcu7t5v0__aoi211_1
*I *1013:ZN O *D gf180mcu_fd_sc_mcu7t5v0__nand2_1
*CAP
1 *1024:A2 0.000208432
2 *1021:A2 0
3 *1013:ZN 0.000182738
4 *147:8 0.00039117
5 *147:8 *1020:A4 1.02578e-05
6 *147:8 *1021:B 0.000211225
7 *1019:B *147:8 0
8 *1021:C *147:8 2.11395e-05
9 *1023:A1 *147:8 8.08741e-05
10 *1024:C *1024:A2 8.26254e-06
11 *1024:C *147:8 2.40328e-06
12 *1059:D *1024:A2 0
13 *1060:D *1024:A2 4.97386e-06
*RES
1 *1013:ZN *147:8 6.172 
2 *147:8 *1021:A2 4.5 
3 *147:8 *1024:A2 5.716 
*END

*D_NET *148 0.00198842
*CONN
*I *1023:A3 I *D gf180mcu_fd_sc_mcu7t5v0__and4_1
*I *1017:A2 I *D gf180mcu_fd_sc_mcu7t5v0__nand3_1
*I *1014:ZN O *D gf180mcu_fd_sc_mcu7t5v0__nand4_1
*CAP
1 *1023:A3 0
2 *1017:A2 0.000169396
3 *1014:ZN 0.000139685
4 *148:14 0.000309081
5 *1017:A2 *1023:A4 0.000313456
6 *1017:A2 *177:21 5.08971e-06
7 *148:14 *1024:B 0
8 *148:14 *177:21 0.000266939
9 *918:I *148:14 5.19228e-05
10 *1021:A1 *148:14 7.54503e-05
11 *1023:A2 *1017:A2 0.000132001
12 *1024:C *1017:A2 0.000201947
13 *1024:C *148:14 0.000194378
14 *146:50 *1017:A2 0.000129078
*RES
1 *1014:ZN *148:14 15.248 
2 *148:14 *1017:A2 6.78 
3 *148:14 *1023:A3 4.5 
*END

*D_NET *149 0.00245027
*CONN
*I *1022:A3 I *D gf180mcu_fd_sc_mcu7t5v0__nand3_1
*I *1015:ZN O *D gf180mcu_fd_sc_mcu7t5v0__nand2_1
*CAP
1 *1022:A3 9.08886e-05
2 *1015:ZN 9.08886e-05
3 *1022:A3 *178:25 0.000846472
4 *1022:A3 *178:38 0.000362867
5 *39:12 *1022:A3 0.000212677
6 *39:20 *1022:A3 0.000846472
*RES
1 *1015:ZN *1022:A3 12.192 
*END

*D_NET *150 0.00140797
*CONN
*I *1020:A4 I *D gf180mcu_fd_sc_mcu7t5v0__and4_1
*I *1017:A3 I *D gf180mcu_fd_sc_mcu7t5v0__nand3_1
*I *1016:ZN O *D gf180mcu_fd_sc_mcu7t5v0__nand4_1
*CAP
1 *1020:A4 0.000145139
2 *1017:A3 1.63315e-05
3 *1016:ZN 0
4 *150:4 0.00016147
5 *1017:A3 *1022:A1 0.000255714
6 *1017:A3 *1023:A4 0.000255714
7 *1020:A4 *1018:A3 1.31444e-05
8 *1020:A4 *226:14 0
9 *1018:A1 *1020:A4 0
10 *1019:B *1020:A4 0
11 *1023:A1 *1020:A4 8.55327e-05
12 *145:14 *1020:A4 0.000220026
13 *145:16 *1020:A4 0.000117908
14 *145:20 *1020:A4 8.84331e-05
15 *146:50 *1020:A4 3.82992e-05
16 *147:8 *1020:A4 1.02578e-05
*RES
1 *1016:ZN *150:4 4.5 
2 *150:4 *1017:A3 5.184 
3 *150:4 *1020:A4 15.02 
*END

*D_NET *151 0.000349151
*CONN
*I *1018:A3 I *D gf180mcu_fd_sc_mcu7t5v0__nand3_1
*I *1017:ZN O *D gf180mcu_fd_sc_mcu7t5v0__nand3_1
*CAP
1 *1018:A3 4.34561e-05
2 *1017:ZN 4.34561e-05
3 *1018:A3 *240:118 2.67619e-05
4 *1020:A4 *1018:A3 1.31444e-05
5 *146:50 *1018:A3 0.000222333
*RES
1 *1017:ZN *1018:A3 18.684 
*END

*D_NET *152 0.00050267
*CONN
*I *1019:A2 I *D gf180mcu_fd_sc_mcu7t5v0__aoi21_1
*I *1018:ZN O *D gf180mcu_fd_sc_mcu7t5v0__nand3_1
*CAP
1 *1019:A2 0.000192585
2 *1018:ZN 0.000192585
3 *1019:A2 *240:8 7.82633e-06
4 *1013:A2 *1019:A2 3.17618e-05
5 *146:18 *1019:A2 7.79113e-05
*RES
1 *1018:ZN *1019:A2 19.292 
*END

*D_NET *153 0.000473772
*CONN
*I *1021:B I *D gf180mcu_fd_sc_mcu7t5v0__aoi211_1
*I *1020:Z O *D gf180mcu_fd_sc_mcu7t5v0__and4_1
*CAP
1 *1021:B 0.000124566
2 *1020:Z 0.000124566
3 *1019:B *1021:B 1.0477e-05
4 *1021:C *1021:B 2.9378e-06
5 *147:8 *1021:B 0.000211225
*RES
1 *1020:Z *1021:B 10.064 
*END

*D_NET *154 0.0015301
*CONN
*I *1023:A4 I *D gf180mcu_fd_sc_mcu7t5v0__and4_1
*I *1022:ZN O *D gf180mcu_fd_sc_mcu7t5v0__nand3_1
*CAP
1 *1023:A4 0.000219162
2 *1022:ZN 0.000219162
3 *1023:A4 *1017:A1 6.3307e-05
4 *1023:A4 *1022:A1 0.000223928
5 *1023:A4 *177:21 0.000181824
6 *1023:A4 *226:8 4.63008e-05
7 *1017:A2 *1023:A4 0.000313456
8 *1017:A3 *1023:A4 0.000255714
9 *146:50 *1023:A4 7.24161e-06
*RES
1 *1022:ZN *1023:A4 12.116 
*END

*D_NET *155 0.000914813
*CONN
*I *1024:B I *D gf180mcu_fd_sc_mcu7t5v0__aoi211_1
*I *1023:Z O *D gf180mcu_fd_sc_mcu7t5v0__and4_1
*CAP
1 *1024:B 0.000226959
2 *1023:Z 0.000226959
3 *1024:B *1014:A2 2.50854e-05
4 *1024:B *177:21 0.000246185
5 *1024:B *178:38 1.5015e-05
6 *1024:C *1024:B 4.46992e-06
7 *1060:D *1024:B 9.37296e-06
8 *39:12 *1024:B 1.34535e-05
9 *40:14 *1024:B 0.000147313
10 *148:14 *1024:B 0
*RES
1 *1023:Z *1024:B 10.976 
*END

*D_NET *156 0.00848837
*CONN
*I *1028:A1 I *D gf180mcu_fd_sc_mcu7t5v0__nand2_1
*I *1039:S I *D gf180mcu_fd_sc_mcu7t5v0__mux2_2
*I *1136:I I *D gf180mcu_fd_sc_mcu7t5v0__buf_2
*I *1045:A2 I *D gf180mcu_fd_sc_mcu7t5v0__nor2_1
*I *1037:S I *D gf180mcu_fd_sc_mcu7t5v0__mux2_2
*I *1042:A2 I *D gf180mcu_fd_sc_mcu7t5v0__nor2_1
*I *1025:ZN O *D gf180mcu_fd_sc_mcu7t5v0__nand2_1
*CAP
1 *1028:A1 0
2 *1039:S 0.000997652
3 *1136:I 0
4 *1045:A2 0
5 *1037:S 0.00020956
6 *1042:A2 2.25306e-05
7 *1025:ZN 0.000395033
8 *156:26 0.000736523
9 *156:16 0.000781556
10 *156:14 0.000344986
11 *156:12 0.00131509
12 *156:6 0.000644607
13 *1037:S *1029:I0 0
14 *1037:S *1037:I0 5.76373e-06
15 *1039:S *1039:I0 4.50449e-05
16 *1039:S *1040:I1 0
17 *1039:S *1044:I0 1.52691e-05
18 *1039:S *1046:A1 0
19 *1039:S *229:10 3.26833e-05
20 *1039:S *232:14 0
21 *1039:S *255:8 1.29593e-05
22 *1039:S *256:8 7.24161e-06
23 *1042:A2 *1043:A2 1.5015e-05
24 *156:6 *1061:SETN 0.000327475
25 *156:6 *159:8 0.000203687
26 *156:6 *239:49 9.58397e-05
27 *156:12 *159:8 1.5015e-05
28 *156:12 *239:49 9.10393e-05
29 *156:14 *1046:A1 0
30 *156:14 *229:10 1.48677e-05
31 *156:14 *229:14 5.94709e-06
32 *156:16 *1043:A1 0
33 *156:16 *1046:A1 0
34 *156:16 *229:14 5.24067e-05
35 *156:26 *1029:I0 0
36 *156:26 *1043:A2 0.000493307
37 *156:26 *1044:S 0.000303386
38 *156:26 *1066:CLK 5.38278e-06
39 *156:26 *1067:CLK 0.000729834
40 *156:26 *198:36 0.000359572
41 *156:26 *229:14 4.48611e-05
42 *156:26 *229:27 0.000164236
43 *1068:D *156:16 0
44 *1068:D *156:26 0
*RES
1 *1025:ZN *156:6 8.224 
2 *156:6 *156:12 6.172 
3 *156:12 *156:14 0.532 
4 *156:14 *156:16 1.748 
5 *156:16 *156:26 10.58 
6 *156:26 *1042:A2 4.728 
7 *156:26 *1037:S 5.792 
8 *156:16 *1045:A2 9 
9 *156:14 *1136:I 9 
10 *156:12 *1039:S 14.928 
11 *156:6 *1028:A1 4.5 
*END

*D_NET *157 0.00196867
*CONN
*I *1135:I I *D gf180mcu_fd_sc_mcu7t5v0__clkbuf_1
*I *1055:A2 I *D gf180mcu_fd_sc_mcu7t5v0__nand2_1
*I *1026:ZN O *D gf180mcu_fd_sc_mcu7t5v0__nor4_1
*CAP
1 *1135:I 0.000173307
2 *1055:A2 1.56656e-05
3 *1026:ZN 0.000170981
4 *157:6 0.000359954
5 *1055:A2 *1003:A2 0.000239414
6 *1055:A2 *225:10 0.000451288
7 *1135:I *1003:A2 5.76373e-06
8 *1135:I *1057:B 1.5015e-05
9 *1135:I *233:10 1.02578e-05
10 *1135:I *250:30 0
11 *157:6 *1056:B 5.83634e-05
12 *157:6 *1056:C 0.000171927
13 *157:6 *1057:A1 0.00015398
14 *157:6 *1057:B 7.88344e-05
15 *1011:B *1135:I 5.19077e-05
16 *1072:D *157:6 1.20079e-05
*RES
1 *1026:ZN *157:6 6.4 
2 *157:6 *1055:A2 14.64 
3 *157:6 *1135:I 5.716 
*END

*D_NET *158 0.000312247
*CONN
*I *1141:I I *D gf180mcu_fd_sc_mcu7t5v0__clkbuf_1
*I *1027:ZN O *D gf180mcu_fd_sc_mcu7t5v0__oai31_1
*CAP
1 *1141:I 0.000107531
2 *1027:ZN 0.000107531
3 *1141:I *1069:RN 9.71855e-05
*RES
1 *1027:ZN *1141:I 18.988 
*END

*D_NET *159 0.00186601
*CONN
*I *1134:I I *D gf180mcu_fd_sc_mcu7t5v0__clkbuf_3
*I *1030:S I *D gf180mcu_fd_sc_mcu7t5v0__mux2_2
*I *1028:ZN O *D gf180mcu_fd_sc_mcu7t5v0__nand2_1
*CAP
1 *1134:I 0
2 *1030:S 0.000141611
3 *1028:ZN 0.000288451
4 *159:8 0.000430062
5 *1030:S *1029:I0 0
6 *1030:S *1030:I0 0.000787185
7 *159:8 *1029:I0 0
8 *156:6 *159:8 0.000203687
9 *156:12 *159:8 1.5015e-05
*RES
1 *1028:ZN *159:8 6.628 
2 *159:8 *1030:S 15.4 
3 *159:8 *1134:I 4.5 
*END

*D_NET *160 0.000358778
*CONN
*I *1030:I1 I *D gf180mcu_fd_sc_mcu7t5v0__mux2_2
*I *1029:Z O *D gf180mcu_fd_sc_mcu7t5v0__mux2_2
*CAP
1 *1030:I1 0.000164462
2 *1029:Z 0.000164462
3 *1030:I1 *198:30 2.98535e-05
*RES
1 *1029:Z *1030:I1 10.064 
*END

*D_NET *161 0.000446788
*CONN
*I *1032:I1 I *D gf180mcu_fd_sc_mcu7t5v0__mux2_2
*I *1031:Z O *D gf180mcu_fd_sc_mcu7t5v0__mux2_2
*CAP
1 *1032:I1 0.000188734
2 *1031:Z 0.000188734
3 *1032:I1 *1029:S 0
4 *1032:I1 *1031:I1 7.24161e-06
5 *1032:I1 *1032:S 1.52691e-05
6 *1032:I1 *1034:I0 4.68103e-05
*RES
1 *1031:Z *1032:I1 10.216 
*END

*D_NET *162 0.00183769
*CONN
*I *1034:I1 I *D gf180mcu_fd_sc_mcu7t5v0__mux2_2
*I *1033:Z O *D gf180mcu_fd_sc_mcu7t5v0__mux2_2
*CAP
1 *1034:I1 0.00053795
2 *1033:Z 0.00053795
3 *1034:I1 *1033:I1 2.22758e-05
4 *1034:I1 *1065:CLK 2.96621e-05
5 *1034:I1 *1076:RN 0.000412903
6 *1034:I1 *197:20 0
7 *1034:I1 *197:22 0.000155051
8 *1063:D *1034:I1 0.000141897
*RES
1 *1033:Z *1034:I1 21.952 
*END

*D_NET *163 0.00249239
*CONN
*I *1036:I1 I *D gf180mcu_fd_sc_mcu7t5v0__mux2_2
*I *1035:Z O *D gf180mcu_fd_sc_mcu7t5v0__mux2_2
*CAP
1 *1036:I1 0.000968488
2 *1035:Z 0.000968488
3 *1036:I1 *1035:I1 6.7497e-05
4 *1036:I1 *1036:S 0
5 *1036:I1 *1038:I0 0.00024053
6 *1036:I1 *1064:CLK 0.00020108
7 *1064:D *1036:I1 4.63109e-05
8 *1065:D *1036:I1 0
*RES
1 *1035:Z *1036:I1 25.448 
*END

*D_NET *164 0.00174125
*CONN
*I *1038:I1 I *D gf180mcu_fd_sc_mcu7t5v0__mux2_2
*I *1037:Z O *D gf180mcu_fd_sc_mcu7t5v0__mux2_2
*CAP
1 *1038:I1 0.000870626
2 *1037:Z 0.000870626
3 *1038:I1 *1042:A1 0
*RES
1 *1037:Z *1038:I1 23.852 
*END

*D_NET *165 0.00162112
*CONN
*I *1040:I1 I *D gf180mcu_fd_sc_mcu7t5v0__mux2_2
*I *1039:Z O *D gf180mcu_fd_sc_mcu7t5v0__mux2_2
*CAP
1 *1040:I1 0.000545556
2 *1039:Z 0.000545556
3 *1040:I1 *1040:I0 3.80393e-05
4 *1040:I1 *1099:I 2.52322e-05
5 *1040:I1 *229:10 0.000140655
6 *1040:I1 *229:14 4.37185e-05
7 *1040:I1 *239:23 4.0011e-05
8 *1040:I1 *239:27 9.0247e-06
9 *1040:I1 *239:49 3.48947e-05
10 *1040:I1 *255:8 0.00019843
11 *1039:S *1040:I1 0
*RES
1 *1039:Z *1040:I1 21.8 
*END

*D_NET *166 0.00529089
*CONN
*I *1046:A2 I *D gf180mcu_fd_sc_mcu7t5v0__aoi21_1
*I *1043:A1 I *D gf180mcu_fd_sc_mcu7t5v0__nor2_1
*I *1041:ZN O *D gf180mcu_fd_sc_mcu7t5v0__aoi21_1
*CAP
1 *1046:A2 0
2 *1043:A1 0.000378963
3 *1041:ZN 0.000350681
4 *166:10 0.000729644
5 *1043:A1 *1029:I0 0.000538178
6 *1043:A1 *1045:A1 0.00031512
7 *1043:A1 *1046:A1 0.000158809
8 *1043:A1 *198:36 3.10417e-05
9 *166:10 *1030:I0 0.000213955
10 *166:10 *1041:B 0
11 *166:10 *1046:A1 0.000308479
12 *166:10 *1061:SETN 0.000558612
13 *166:10 *229:10 0.000734813
14 *166:10 *232:14 0.000276717
15 *166:10 *239:49 0.000171927
16 *1068:D *1043:A1 0.000523951
17 *156:16 *1043:A1 0
*RES
1 *1041:ZN *166:10 14.472 
2 *166:10 *1043:A1 12.952 
3 *166:10 *1046:A2 9 
*END

*D_NET *167 0.00253884
*CONN
*I *1043:A2 I *D gf180mcu_fd_sc_mcu7t5v0__nor2_1
*I *1042:ZN O *D gf180mcu_fd_sc_mcu7t5v0__nor2_1
*CAP
1 *1043:A2 0.000283663
2 *1042:ZN 0.000283663
3 *1043:A2 *1031:I0 0
4 *1043:A2 *1044:I0 0.000387757
5 *1043:A2 *1044:I1 0.000577186
6 *1043:A2 *1044:S 7.50749e-05
7 *1043:A2 *1067:CLK 3.9105e-05
8 *1043:A2 *1099:I 7.84009e-05
9 *1042:A2 *1043:A2 1.5015e-05
10 *1066:D *1043:A2 0.000305671
11 *156:26 *1043:A2 0.000493307
*RES
1 *1042:ZN *1043:A2 22.104 
*END

*D_NET *168 0.00125841
*CONN
*I *1044:I1 I *D gf180mcu_fd_sc_mcu7t5v0__mux2_2
*I *1043:ZN O *D gf180mcu_fd_sc_mcu7t5v0__nor2_1
*CAP
1 *1044:I1 0.000236218
2 *1043:ZN 0.000236218
3 *1044:I1 *1045:A1 0.000186515
4 *1044:I1 *1067:CLK 1.34435e-05
5 *1044:I1 *198:36 8.83282e-06
6 *1043:A2 *1044:I1 0.000577186
*RES
1 *1043:ZN *1044:I1 11.432 
*END

*D_NET *169 0.000634333
*CONN
*I *1046:B I *D gf180mcu_fd_sc_mcu7t5v0__aoi21_1
*I *1045:ZN O *D gf180mcu_fd_sc_mcu7t5v0__nor2_1
*CAP
1 *1046:B 0.000154846
2 *1045:ZN 0.000154846
3 *1046:B *1029:I0 0.00032464
*RES
1 *1045:ZN *1046:B 10.368 
*END

*D_NET *170 0.00022956
*CONN
*I *1048:I I *D gf180mcu_fd_sc_mcu7t5v0__clkinv_1
*I *1047:Z O *D gf180mcu_fd_sc_mcu7t5v0__mux2_2
*CAP
1 *1048:I 9.84257e-05
2 *1047:Z 9.84257e-05
3 *1048:I *232:14 3.2709e-05
*RES
1 *1047:Z *1048:I 18.836 
*END

*D_NET *171 0.000811401
*CONN
*I *1052:A2 I *D gf180mcu_fd_sc_mcu7t5v0__aoi21_1
*I *1054:B2 I *D gf180mcu_fd_sc_mcu7t5v0__oai22_1
*I *1049:Z O *D gf180mcu_fd_sc_mcu7t5v0__or2_1
*CAP
1 *1052:A2 0
2 *1054:B2 0.00014422
3 *1049:Z 0.000150161
4 *171:10 0.000294381
5 *1054:B2 *1054:A2 0
6 *1054:B2 *1054:B1 8.7332e-05
7 *171:10 *1054:A2 0
8 *1052:A1 *171:10 0.000135308
9 *1070:D *1054:B2 0
*RES
1 *1049:Z *171:10 5.792 
2 *171:10 *1054:B2 5.488 
3 *171:10 *1052:A2 4.5 
*END

*D_NET *172 0.000388239
*CONN
*I *1051:A2 I *D gf180mcu_fd_sc_mcu7t5v0__and2_1
*I *1050:ZN O *D gf180mcu_fd_sc_mcu7t5v0__oai32_1
*CAP
1 *1051:A2 0.000102634
2 *1050:ZN 0.000102634
3 *1051:A2 *1051:A1 0.000108196
4 *1051:A2 *239:76 0
5 *1050:B2 *1051:A2 7.3227e-05
6 *76:16 *1051:A2 1.54747e-06
*RES
1 *1050:ZN *1051:A2 9.836 
*END

*D_NET *173 0.000962034
*CONN
*I *1054:A2 I *D gf180mcu_fd_sc_mcu7t5v0__oai22_1
*I *1052:B I *D gf180mcu_fd_sc_mcu7t5v0__aoi21_1
*I *1051:Z O *D gf180mcu_fd_sc_mcu7t5v0__and2_1
*CAP
1 *1054:A2 0.000144853
2 *1052:B 5.82317e-05
3 *1051:Z 0.000111939
4 *173:8 0.000315024
5 *1052:B *1054:B1 4.04846e-05
6 *1054:A2 *1054:B1 6.06269e-05
7 *1054:A2 *239:76 1.02823e-05
8 *173:8 *239:76 3.56172e-05
9 *1052:A1 *1052:B 6.00599e-05
10 *1052:A1 *173:8 1.30476e-05
11 *1053:A2 *1054:A2 0.000111867
12 *1054:B2 *1054:A2 0
13 *171:10 *1054:A2 0
*RES
1 *1051:Z *173:8 5.336 
2 *173:8 *1052:B 5.336 
3 *173:8 *1054:A2 5.944 
*END

*D_NET *174 0.000530131
*CONN
*I *1054:B1 I *D gf180mcu_fd_sc_mcu7t5v0__oai22_1
*I *1053:ZN O *D gf180mcu_fd_sc_mcu7t5v0__nand2_1
*CAP
1 *1054:B1 0.000170844
2 *1053:ZN 0.000170844
3 *1052:B *1054:B1 4.04846e-05
4 *1054:A2 *1054:B1 6.06269e-05
5 *1054:B2 *1054:B1 8.7332e-05
*RES
1 *1053:ZN *1054:B1 10.52 
*END

*D_NET *175 0.00259341
*CONN
*I *1056:B I *D gf180mcu_fd_sc_mcu7t5v0__oai211_1
*I *1057:A2 I *D gf180mcu_fd_sc_mcu7t5v0__oai21_1
*I *1055:ZN O *D gf180mcu_fd_sc_mcu7t5v0__nand2_1
*CAP
1 *1056:B 0.000327367
2 *1057:A2 5.01669e-05
3 *1055:ZN 9.84103e-05
4 *175:6 0.000475944
5 *1056:B *1056:C 3.30454e-05
6 *1057:A2 *1057:A1 1.97747e-05
7 *1026:A2 *1056:B 0.000211877
8 *1026:A4 *1056:B 0.000256
9 *1072:D *1056:B 0.000317494
10 *1072:D *1057:A2 8.55327e-05
11 *39:32 *1056:B 0.000140167
12 *39:34 *1056:B 0.000257276
13 *40:69 *1056:B 0.000261998
14 *157:6 *1056:B 5.83634e-05
*RES
1 *1055:ZN *175:6 5.184 
2 *175:6 *1057:A2 4.88 
3 *175:6 *1056:B 17.224 
*END

*D_NET *176 0.00225365
*CONN
*I *1057:B I *D gf180mcu_fd_sc_mcu7t5v0__oai21_1
*I *1056:ZN O *D gf180mcu_fd_sc_mcu7t5v0__oai211_1
*CAP
1 *1057:B 0.000167792
2 *1056:ZN 0.000167792
3 *1057:B *1003:A2 2.96977e-05
4 *1057:B *1056:C 0.000830586
5 *1007:A1 *1057:B 0.000895996
6 *1135:I *1057:B 1.5015e-05
7 *74:14 *1057:B 6.79352e-05
8 *157:6 *1057:B 7.88344e-05
*RES
1 *1056:ZN *1057:B 12.344 
*END

*D_NET *177 0.00403481
*CONN
*I *1016:A1 I *D gf180mcu_fd_sc_mcu7t5v0__nand4_1
*I *1022:A1 I *D gf180mcu_fd_sc_mcu7t5v0__nand3_1
*I *1024:A1 I *D gf180mcu_fd_sc_mcu7t5v0__aoi211_1
*I *918:ZN O *D gf180mcu_fd_sc_mcu7t5v0__clkinv_1
*CAP
1 *1016:A1 0
2 *1022:A1 0.000140396
3 *1024:A1 0
4 *918:ZN 7.17746e-05
5 *177:21 0.000354491
6 *177:8 0.000285869
7 *177:21 *178:38 0.000191749
8 *918:I *177:8 0.000340241
9 *918:I *177:21 0.000442367
10 *1017:A2 *177:21 5.08971e-06
11 *1017:A3 *1022:A1 0.000255714
12 *1020:A1 *1022:A1 0.000869347
13 *1020:A1 *177:21 2.6126e-05
14 *1021:A1 *177:8 6.54913e-05
15 *1021:A1 *177:21 2.59946e-05
16 *1023:A4 *1022:A1 0.000223928
17 *1023:A4 *177:21 0.000181824
18 *1024:B *177:21 0.000246185
19 *1024:C *177:21 8.02751e-06
20 *39:26 *1022:A1 3.32523e-05
21 *148:14 *177:21 0.000266939
*RES
1 *918:ZN *177:8 9.836 
2 *177:8 *1024:A1 9 
3 *177:8 *177:21 7.692 
4 *177:21 *1022:A1 7.388 
5 *177:21 *1016:A1 4.5 
*END

*D_NET *178 0.00606413
*CONN
*I *1014:A2 I *D gf180mcu_fd_sc_mcu7t5v0__nand4_1
*I *1015:A1 I *D gf180mcu_fd_sc_mcu7t5v0__nand2_1
*I *1016:A2 I *D gf180mcu_fd_sc_mcu7t5v0__nand4_1
*I *1003:A1 I *D gf180mcu_fd_sc_mcu7t5v0__aoi211_1
*I *919:ZN O *D gf180mcu_fd_sc_mcu7t5v0__clkinv_1
*CAP
1 *1014:A2 7.53431e-05
2 *1015:A1 0
3 *1016:A2 0
4 *1003:A1 0.000299724
5 *919:ZN 0
6 *178:38 0.000198951
7 *178:25 0.000463069
8 *178:4 0.000639185
9 *1001:A2 *1003:A1 2.95531e-05
10 *1001:A2 *178:25 0
11 *1003:C *1003:A1 1.50458e-05
12 *1004:B2 *1003:A1 2.6126e-05
13 *1007:A2 *1003:A1 0.000284673
14 *1007:A3 *1003:A1 0.000147305
15 *1014:A1 *178:38 5.76373e-06
16 *1020:A1 *1003:A1 5.76373e-06
17 *1020:A1 *178:25 0.0014671
18 *1022:A3 *178:25 0.000846472
19 *1022:A3 *178:38 0.000362867
20 *1024:B *1014:A2 2.50854e-05
21 *1024:B *178:38 1.5015e-05
22 *38:51 *1003:A1 9.88736e-06
23 *38:75 *1003:A1 0.000190559
24 *39:12 *1014:A2 0.000203747
25 *39:12 *178:38 5.53107e-05
26 *39:20 *178:25 5.23776e-05
27 *40:45 *1003:A1 0.000128482
28 *40:45 *178:25 2.4397e-05
29 *40:54 *1003:A1 0.00023115
30 *40:54 *178:25 0
31 *40:65 *1003:A1 2.1767e-05
32 *74:14 *1003:A1 1.28529e-05
33 *74:51 *178:25 3.48101e-05
34 *177:21 *178:38 0.000191749
*RES
1 *919:ZN *178:4 4.5 
2 *178:4 *1003:A1 16.616 
3 *178:4 *178:25 4.788 
4 *178:25 *1016:A2 4.5 
5 *178:25 *178:38 1.976 
6 *178:38 *1015:A1 4.5 
7 *178:38 *1014:A2 5.26 
*END

*D_NET *179 0.00993394
*CONN
*I *958:A1 I *D gf180mcu_fd_sc_mcu7t5v0__xnor2_1
*I *964:A1 I *D gf180mcu_fd_sc_mcu7t5v0__nand4_1
*I *960:A1 I *D gf180mcu_fd_sc_mcu7t5v0__and3_1
*I *961:A1 I *D gf180mcu_fd_sc_mcu7t5v0__aoi21_1
*I *957:A1 I *D gf180mcu_fd_sc_mcu7t5v0__nor2_1
*I *943:A2 I *D gf180mcu_fd_sc_mcu7t5v0__xor2_1
*I *1073:Q O *D gf180mcu_fd_sc_mcu7t5v0__dffrnq_1
*CAP
1 *958:A1 4.00998e-05
2 *964:A1 0.00013706
3 *960:A1 0
4 *961:A1 0
5 *957:A1 0.00031362
6 *943:A2 0
7 *1073:Q 0.000323576
8 *179:54 0.000208995
9 *179:45 9.38049e-05
10 *179:38 0.000610244
11 *179:14 0.000840891
12 *179:8 0.00139912
13 *957:A1 *943:A1 8.55242e-05
14 *957:A1 *957:A2 0.000265669
15 *957:A1 *197:83 0
16 *958:A1 *959:A1 0
17 *958:A1 *186:10 0.000369724
18 *958:A1 *187:25 0.00020862
19 *964:A1 *933:A1 3.41017e-05
20 *964:A1 *964:A2 0.000456163
21 *964:A1 *964:A4 0
22 *964:A1 *186:10 8.15645e-05
23 *964:A1 *187:25 0.000145096
24 *964:A1 *230:32 0.000431535
25 *179:8 *1073:RN 1.615e-05
26 *179:8 *238:105 0
27 *179:14 *939:A1 0.000248619
28 *179:14 *943:A1 7.42484e-05
29 *179:14 *957:A2 0
30 *179:14 *197:83 2.333e-05
31 *179:14 *230:49 0
32 *179:38 *939:A1 0.000254159
33 *179:38 *961:A2 1.5015e-05
34 *179:38 *964:A2 0
35 *179:38 *187:25 1.02578e-05
36 *179:38 *188:10 0
37 *179:38 *230:38 0.000820996
38 *179:38 *230:49 0
39 *179:45 *961:A2 0.000236987
40 *179:45 *187:25 0.000107848
41 *179:54 *960:A3 9.88736e-06
42 *179:54 *964:A2 1.91917e-06
43 *179:54 *187:25 1.3758e-05
44 *962:A3 *179:38 2.99743e-05
45 *965:A2 *179:38 0.000253849
46 *1073:D *957:A1 0.000332509
47 *1079:D *179:14 0.00105812
48 *109:12 *179:38 0.000380904
*RES
1 *1073:Q *179:8 10.748 
2 *179:8 *179:14 9.516 
3 *179:14 *943:A2 4.5 
4 *179:14 *957:A1 7.692 
5 *179:8 *179:38 10.58 
6 *179:38 *961:A1 4.5 
7 *179:38 *179:45 0.988 
8 *179:45 *960:A1 4.5 
9 *179:45 *179:54 4.728 
10 *179:54 *964:A1 11.28 
11 *179:54 *958:A1 9.988 
*END

*D_NET *180 0.00781334
*CONN
*I *938:A2 I *D gf180mcu_fd_sc_mcu7t5v0__xnor2_1
*I *984:A1 I *D gf180mcu_fd_sc_mcu7t5v0__nor2_1
*I *985:A1 I *D gf180mcu_fd_sc_mcu7t5v0__and2_1
*I *987:A1 I *D gf180mcu_fd_sc_mcu7t5v0__aoi21_1
*I *988:A3 I *D gf180mcu_fd_sc_mcu7t5v0__nand4_1
*I *1083:Q O *D gf180mcu_fd_sc_mcu7t5v0__dffrnq_1
*CAP
1 *938:A2 0.000148741
2 *984:A1 7.11567e-05
3 *985:A1 0.000187274
4 *987:A1 1.95903e-05
5 *988:A3 0.000243636
6 *1083:Q 8.05085e-06
7 *180:16 0.000397447
8 *180:12 0.000332827
9 *180:10 0.000117399
10 *180:8 0.000191702
11 *938:A2 *938:A1 0.00029773
12 *938:A2 *1083:RN 2.6126e-05
13 *938:A2 *199:44 0.00012759
14 *985:A1 *986:A1 5.97012e-05
15 *985:A1 *193:10 0
16 *987:A1 *987:B 7.83779e-05
17 *987:A1 *1084:RN 5.87561e-06
18 *988:A3 *982:A1 0
19 *988:A3 *987:B 0.000179609
20 *988:A3 *988:A4 3.73535e-05
21 *988:A3 *1084:RN 4.63008e-05
22 *988:A3 *181:10 0.000419624
23 *988:A3 *194:12 7.24161e-06
24 *180:8 *231:23 0.00023481
25 *180:8 *240:48 0.000269865
26 *180:10 *199:48 0.00063128
27 *180:10 *231:23 0.00162532
28 *180:10 *240:48 8.15645e-05
29 *180:10 *240:61 3.65162e-05
30 *180:12 *231:23 0.000170989
31 *180:16 *990:A1 0.000196614
32 *180:16 *199:52 3.59618e-05
33 *180:16 *231:23 0.000146949
34 *985:A2 *985:A1 6.00689e-05
35 *986:A2 *984:A1 0.00018513
36 *986:A2 *985:A1 6.92115e-05
37 *1083:D *180:10 0.00021548
38 *1083:D *180:12 0.000199473
39 *1083:D *180:16 8.8425e-05
40 *123:12 *180:16 0.000562328
*RES
1 *1083:Q *180:8 9.684 
2 *180:8 *180:10 4.18 
3 *180:10 *180:12 0.532 
4 *180:12 *180:16 6.4 
5 *180:16 *988:A3 6.932 
6 *180:16 *987:A1 4.728 
7 *180:12 *985:A1 10.292 
8 *180:10 *984:A1 9.532 
9 *180:8 *938:A2 10.748 
*END

*D_NET *181 0.00559667
*CONN
*I *987:B I *D gf180mcu_fd_sc_mcu7t5v0__aoi21_1
*I *988:A4 I *D gf180mcu_fd_sc_mcu7t5v0__nand4_1
*I *948:A2 I *D gf180mcu_fd_sc_mcu7t5v0__xor2_1
*I *1084:Q O *D gf180mcu_fd_sc_mcu7t5v0__dffrnq_1
*CAP
1 *987:B 5.76416e-05
2 *988:A4 6.00422e-05
3 *948:A2 0.00109361
4 *1084:Q 0
5 *181:10 0.00138027
6 *181:4 0.000284257
7 *948:A2 *940:A2 7.50749e-05
8 *948:A2 *978:A1 0
9 *948:A2 *982:A1 1.09972e-05
10 *948:A2 *194:16 3.55124e-05
11 *948:A2 *230:87 0.000368757
12 *948:A2 *230:104 1.02578e-05
13 *987:B *1084:RN 3.83835e-06
14 *987:B *194:12 0.000545559
15 *988:A4 *982:A1 1.26383e-05
16 *181:10 *194:12 0.000148853
17 *181:10 *194:16 0.000141194
18 *942:A1 *948:A2 0.000376901
19 *978:A3 *948:A2 2.90524e-05
20 *987:A1 *987:B 7.83779e-05
21 *988:A3 *987:B 0.000179609
22 *988:A3 *988:A4 3.73535e-05
23 *988:A3 *181:10 0.000419624
24 *989:A4 *948:A2 0
25 *1080:D *948:A2 0.000161681
26 *120:18 *948:A2 0
27 *120:25 *948:A2 8.55692e-05
28 *120:36 *948:A2 0
*RES
1 *1084:Q *181:4 4.5 
2 *181:4 *181:10 2.204 
3 *181:10 *948:A2 21.328 
4 *181:10 *988:A4 5.032 
5 *181:4 *987:B 5.944 
*END

*D_NET *182 0.00330077
*CONN
*I *994:A1 I *D gf180mcu_fd_sc_mcu7t5v0__and3_1
*I *993:A1 I *D gf180mcu_fd_sc_mcu7t5v0__aoi21_1
*I *944:A2 I *D gf180mcu_fd_sc_mcu7t5v0__xor2_1
*I *991:A1 I *D gf180mcu_fd_sc_mcu7t5v0__xnor2_1
*I *1085:Q O *D gf180mcu_fd_sc_mcu7t5v0__dffrnq_1
*CAP
1 *994:A1 3.48801e-05
2 *993:A1 3.24969e-05
3 *944:A2 8.64101e-05
4 *991:A1 9.6078e-05
5 *1085:Q 0
6 *182:16 0.000439458
7 *182:10 0.00039522
8 *182:4 0.000140633
9 *944:A2 *938:A1 0
10 *944:A2 *944:A1 0
11 *944:A2 *946:A1 1.65795e-06
12 *993:A1 *993:A2 1.44832e-05
13 *993:A1 *993:B 4.29817e-05
14 *994:A1 *994:A2 0.000142809
15 *994:A1 *1085:RN 1.53727e-05
16 *182:10 *993:B 9.57233e-06
17 *182:10 *1085:RN 7.24161e-06
18 *182:16 *994:A2 8.30371e-05
19 *951:A1 *994:A1 0.00014967
20 *951:A1 *182:16 2.26535e-05
21 *951:A2 *944:A2 1.93526e-05
22 *951:A2 *991:A1 0.000187671
23 *951:A2 *182:16 0.000166082
24 *951:A4 *944:A2 9.13382e-05
25 *951:A4 *991:A1 0.000672539
26 *995:A2 *993:A1 1.67178e-05
27 *995:A2 *994:A1 0.000137785
28 *995:A2 *182:10 5.66745e-05
29 *25:18 *182:16 0.000237959
*RES
1 *1085:Q *182:4 4.5 
2 *182:4 *182:10 0.836 
3 *182:10 *182:16 11.356 
4 *182:16 *991:A1 6.248 
5 *182:16 *944:A2 5.184 
6 *182:10 *993:A1 4.88 
7 *182:4 *994:A1 14.26 
*END

*D_NET *183 0.00281686
*CONN
*I *993:B I *D gf180mcu_fd_sc_mcu7t5v0__aoi21_1
*I *994:A2 I *D gf180mcu_fd_sc_mcu7t5v0__and3_1
*I *946:A2 I *D gf180mcu_fd_sc_mcu7t5v0__xor2_1
*I *1086:Q O *D gf180mcu_fd_sc_mcu7t5v0__dffrnq_1
*CAP
1 *993:B 0.000154592
2 *994:A2 0.000125677
3 *946:A2 8.38124e-05
4 *1086:Q 0
5 *183:17 0.000486094
6 *183:4 0.000289638
7 *946:A2 *231:12 8.30371e-05
8 *993:B *946:A1 3.35538e-05
9 *993:B *1085:RN 8.55327e-05
10 *183:17 *995:A1 0
11 *183:17 *1085:RN 0.000547958
12 *183:17 *231:6 0
13 *951:A1 *994:A2 0.000238682
14 *993:A1 *993:B 4.29817e-05
15 *994:A1 *994:A2 0.000142809
16 *995:A2 *183:17 0
17 *25:18 *993:B 1.20079e-05
18 *25:18 *183:17 0.000397877
19 *182:10 *993:B 9.57233e-06
20 *182:16 *994:A2 8.30371e-05
*RES
1 *1086:Q *183:4 4.5 
2 *183:4 *946:A2 14.184 
3 *183:4 *183:17 2.508 
4 *183:17 *994:A2 15.096 
5 *183:17 *993:B 5.792 
*END

*D_NET *184 0.00847991
*CONN
*I *998:A1 I *D gf180mcu_fd_sc_mcu7t5v0__aoi21_1
*I *999:A1 I *D gf180mcu_fd_sc_mcu7t5v0__and3_1
*I *996:B2 I *D gf180mcu_fd_sc_mcu7t5v0__oai221_1
*I *936:A2 I *D gf180mcu_fd_sc_mcu7t5v0__xnor2_1
*I *997:A1 I *D gf180mcu_fd_sc_mcu7t5v0__aoi21_1
*I *1087:Q O *D gf180mcu_fd_sc_mcu7t5v0__dffrnq_1
*CAP
1 *998:A1 0.000399853
2 *999:A1 7.66293e-05
3 *996:B2 0
4 *936:A2 0
5 *997:A1 0.000275443
6 *1087:Q 0.000335058
7 *184:47 0.000679808
8 *184:38 0.000384499
9 *184:14 0.000538811
10 *184:10 0.000779599
11 *997:A1 *1087:CLK 0.000376901
12 *997:A1 *196:15 6.29048e-05
13 *998:A1 *185:14 0
14 *998:A1 *200:59 0
15 *998:A1 *241:59 0
16 *184:10 *200:8 3.56141e-05
17 *184:10 *200:39 3.32418e-05
18 *184:10 *200:43 3.02712e-05
19 *184:10 *240:16 0.000203508
20 *184:10 *241:59 4.68103e-05
21 *184:14 *936:A1 9.34472e-05
22 *184:14 *200:43 1.96948e-05
23 *184:14 *240:16 8.42664e-05
24 *184:38 *200:59 9.32583e-05
25 *184:47 *200:59 0.000210596
26 *954:A2 *997:A1 7.95952e-05
27 *997:A2 *997:A1 7.52811e-05
28 *997:A2 *184:38 0.000910634
29 *998:A2 *998:A1 0.000253394
30 *1086:D *998:A1 1.11891e-05
31 *1086:D *999:A1 8.54817e-05
32 *1087:D *997:A1 0.000148533
33 *1097:I *997:A1 0.000466126
34 *1098:I *184:14 0.000260709
35 *103:16 *997:A1 1.97747e-05
36 *105:22 *997:A1 2.98542e-05
37 *105:22 *184:14 7.7322e-05
38 *132:23 *184:47 2.6126e-05
39 *132:25 *184:38 3.08902e-05
40 *132:25 *184:47 0.00124479
*RES
1 *1087:Q *184:10 12.192 
2 *184:10 *184:14 6.704 
3 *184:14 *997:A1 16.616 
4 *184:14 *936:A2 4.5 
5 *184:10 *184:38 6.856 
6 *184:38 *996:B2 4.5 
7 *184:38 *184:47 7.768 
8 *184:47 *999:A1 9.532 
9 *184:47 *998:A1 12.04 
*END

*D_NET *185 0.00473603
*CONN
*I *998:B I *D gf180mcu_fd_sc_mcu7t5v0__aoi21_1
*I *931:A2 I *D gf180mcu_fd_sc_mcu7t5v0__xor2_1
*I *999:A2 I *D gf180mcu_fd_sc_mcu7t5v0__and3_1
*I *1088:Q O *D gf180mcu_fd_sc_mcu7t5v0__dffrnq_1
*CAP
1 *998:B 0
2 *931:A2 0.000604964
3 *999:A2 0.000123118
4 *1088:Q 0.000423729
5 *185:14 0.000922255
6 *185:10 0.000617903
7 *931:A2 *931:A1 2.57058e-06
8 *931:A2 *936:A1 0
9 *185:10 *1086:RN 0.000406043
10 *185:10 *1088:RN 0
11 *185:14 *1086:RN 0.000995592
12 *951:A1 *931:A2 0
13 *998:A1 *185:14 0
14 *998:A2 *185:14 0.000118095
15 *1000:A3 *931:A2 4.8993e-05
16 *1086:D *931:A2 9.88736e-06
17 *1086:D *999:A2 0.00010052
18 *1088:D *931:A2 9.1336e-05
19 *1098:I *931:A2 4.29996e-05
20 *1098:I *999:A2 2.7871e-05
21 *132:8 *931:A2 0
22 *132:19 *185:14 1.28891e-05
23 *132:23 *999:A2 0.000161136
24 *132:25 *999:A2 2.6126e-05
*RES
1 *1088:Q *185:10 12.04 
2 *185:10 *185:14 7.008 
3 *185:14 *999:A2 5.64 
4 *185:14 *931:A2 8.452 
5 *185:10 *998:B 9 
*END

*D_NET *186 0.00353909
*CONN
*I *932:A2 I *D gf180mcu_fd_sc_mcu7t5v0__xnor2_1
*I *958:A2 I *D gf180mcu_fd_sc_mcu7t5v0__xnor2_1
*I *960:A2 I *D gf180mcu_fd_sc_mcu7t5v0__and3_1
*I *961:A2 I *D gf180mcu_fd_sc_mcu7t5v0__aoi21_1
*I *964:A2 I *D gf180mcu_fd_sc_mcu7t5v0__nand4_1
*I *1074:Q O *D gf180mcu_fd_sc_mcu7t5v0__dffrnq_1
*CAP
1 *932:A2 0.000342393
2 *958:A2 0.000400512
3 *960:A2 0
4 *961:A2 0.000114726
5 *964:A2 0.000159464
6 *1074:Q 0.000114119
7 *186:23 0.000114726
8 *186:10 0.000287208
9 *186:6 0.000299984
10 *932:A2 *932:A1 8.55242e-05
11 *958:A2 *187:25 7.67669e-06
12 *961:A2 *187:29 4.26315e-06
13 *961:A2 *230:32 0
14 *964:A2 *933:A1 0.000140167
15 *964:A2 *960:A3 1.2018e-05
16 *964:A2 *187:29 0.000101971
17 *964:A2 *230:32 2.05156e-05
18 *186:6 *1074:RN 5.76373e-06
19 *186:6 *187:25 3.56141e-05
20 *186:10 *959:A1 0
21 *186:10 *187:12 3.02712e-05
22 *958:A1 *186:10 0.000369724
23 *959:A2 *932:A2 4.1381e-05
24 *959:A2 *958:A2 0
25 *962:A3 *961:A2 1.79695e-05
26 *964:A1 *964:A2 0.000456163
27 *964:A1 *186:10 8.15645e-05
28 *109:8 *961:A2 4.14495e-05
29 *179:38 *961:A2 1.5015e-05
30 *179:38 *964:A2 0
31 *179:45 *961:A2 0.000236987
32 *179:54 *964:A2 1.91917e-06
*RES
1 *1074:Q *186:6 5.184 
2 *186:6 *186:10 5.944 
3 *186:10 *964:A2 10.976 
4 *186:10 *186:23 4.5 
5 *186:23 *961:A2 5.792 
6 *186:23 *960:A2 4.5 
7 *186:6 *958:A2 4.88 
8 *958:A2 *932:A2 11.204 
*END

*D_NET *187 0.0036046
*CONN
*I *960:A3 I *D gf180mcu_fd_sc_mcu7t5v0__and3_1
*I *933:A2 I *D gf180mcu_fd_sc_mcu7t5v0__xnor2_1
*I *964:A3 I *D gf180mcu_fd_sc_mcu7t5v0__nand4_1
*I *961:B I *D gf180mcu_fd_sc_mcu7t5v0__aoi21_1
*I *1075:Q O *D gf180mcu_fd_sc_mcu7t5v0__dffrnq_1
*CAP
1 *960:A3 2.27421e-05
2 *933:A2 2.55615e-05
3 *964:A3 0
4 *961:B 0
5 *1075:Q 0.000474107
6 *187:29 0.000196773
7 *187:25 0.000452864
8 *187:12 0.000733017
9 *933:A2 *933:A1 0.00029375
10 *933:A2 *230:24 0.000379274
11 *187:12 *1074:RN 4.71416e-05
12 *187:25 *959:A1 0
13 *187:25 *964:A4 1.34641e-06
14 *187:25 *1074:RN 0
15 *187:29 *933:A1 0.000251825
16 *187:29 *230:24 3.08902e-05
17 *958:A1 *187:25 0.00020862
18 *958:A2 *187:25 7.67669e-06
19 *961:A2 *187:29 4.26315e-06
20 *962:A3 *187:29 0
21 *964:A1 *187:25 0.000145096
22 *964:A2 *960:A3 1.2018e-05
23 *964:A2 *187:29 0.000101971
24 *112:10 *933:A2 8.02751e-06
25 *179:38 *187:25 1.02578e-05
26 *179:45 *187:25 0.000107848
27 *179:54 *960:A3 9.88736e-06
28 *179:54 *187:25 1.3758e-05
29 *186:6 *187:25 3.56141e-05
30 *186:10 *187:12 3.02712e-05
*RES
1 *1075:Q *187:12 16.692 
2 *187:12 *961:B 4.5 
3 *187:12 *187:25 11.128 
4 *187:25 *187:29 1.52 
5 *187:29 *964:A3 4.5 
6 *187:29 *933:A2 5.488 
7 *187:25 *960:A3 4.728 
*END

*D_NET *188 0.00513015
*CONN
*I *939:A2 I *D gf180mcu_fd_sc_mcu7t5v0__xor2_1
*I *964:A4 I *D gf180mcu_fd_sc_mcu7t5v0__nand4_1
*I *963:A1 I *D gf180mcu_fd_sc_mcu7t5v0__and2_1
*I *965:A1 I *D gf180mcu_fd_sc_mcu7t5v0__nor2_1
*I *1076:Q O *D gf180mcu_fd_sc_mcu7t5v0__dffrnq_1
*CAP
1 *939:A2 9.92189e-05
2 *964:A4 0.000110998
3 *963:A1 0
4 *965:A1 5.43939e-05
5 *1076:Q 0.000476641
6 *188:30 0.000316497
7 *188:23 0.000317875
8 *188:10 0.000742631
9 *939:A2 *933:A1 0
10 *939:A2 *1075:CLK 0.000126613
11 *939:A2 *230:32 2.22758e-05
12 *964:A4 *932:A1 0
13 *964:A4 *933:A1 0.000196485
14 *964:A4 *230:32 0.00036947
15 *965:A1 *939:A1 0.000101246
16 *965:A1 *238:99 0.000515627
17 *188:10 *197:6 3.67389e-05
18 *188:10 *238:73 1.615e-05
19 *188:10 *238:81 0
20 *188:10 *238:99 0.000546956
21 *188:23 *1075:CLK 8.2746e-05
22 *188:23 *230:32 0.000128373
23 *188:30 *1075:CLK 0.00011528
24 *188:30 *230:32 0.00011703
25 *963:A2 *188:23 0.000241507
26 *964:A1 *964:A4 0
27 *965:A2 *965:A1 0
28 *1075:D *188:23 0.000317494
29 *109:8 *188:23 8.81341e-06
30 *109:12 *965:A1 0
31 *109:12 *188:10 0
32 *112:10 *939:A2 6.77492e-05
33 *179:38 *188:10 0
34 *187:25 *964:A4 1.34641e-06
*RES
1 *1076:Q *188:10 12.648 
2 *188:10 *965:A1 10.292 
3 *188:10 *188:23 7.008 
4 *188:23 *963:A1 4.5 
5 *188:23 *188:30 1.14 
6 *188:30 *964:A4 14.944 
7 *188:30 *939:A2 5.64 
*END

*D_NET *189 0.00844933
*CONN
*I *967:A1 I *D gf180mcu_fd_sc_mcu7t5v0__xor2_1
*I *969:A1 I *D gf180mcu_fd_sc_mcu7t5v0__nand2_1
*I *971:A1 I *D gf180mcu_fd_sc_mcu7t5v0__aoi21_1
*I *941:A2 I *D gf180mcu_fd_sc_mcu7t5v0__xor2_1
*I *1077:Q O *D gf180mcu_fd_sc_mcu7t5v0__dffrnq_1
*CAP
1 *967:A1 0.000149131
2 *969:A1 0
3 *971:A1 0.000241572
4 *941:A2 0.000485661
5 *1077:Q 0.000424427
6 *189:35 0.000241572
7 *189:18 0.00122063
8 *189:8 0.00130853
9 *941:A2 *935:A2 0
10 *941:A2 *191:26 8.55242e-05
11 *941:A2 *191:34 0.000495387
12 *941:A2 *230:87 0.000150323
13 *967:A1 *1077:CLK 0
14 *967:A1 *199:14 9.88736e-06
15 *971:A1 *969:A2 0.00018402
16 *971:A1 *190:19 9.42885e-05
17 *971:A1 *230:79 0.00013063
18 *189:8 *1080:RN 0.000232023
19 *189:8 *240:16 0.000387773
20 *189:18 *1075:CLK 0.000910634
21 *189:18 *1080:RN 4.21332e-05
22 *949:A1 *941:A2 7.45417e-06
23 *949:A3 *941:A2 5.00729e-05
24 *949:A4 *941:A2 6.0538e-05
25 *950:A3 *189:8 8.8425e-05
26 *950:A4 *941:A2 3.40956e-05
27 *950:A4 *189:18 0.00040532
28 *967:A2 *967:A1 0.00025334
29 *968:A2 *967:A1 6.39906e-05
30 *968:A2 *189:18 0.000202842
31 *972:A3 *971:A1 1.3758e-05
32 *1097:I *189:8 1.45899e-05
33 *105:14 *189:8 2.18892e-05
34 *112:10 *189:18 5.77483e-05
35 *112:14 *189:8 5.43763e-05
36 *112:14 *189:18 0.000262996
37 *116:12 *971:A1 6.3744e-05
*RES
1 *1077:Q *189:8 13.028 
2 *189:8 *189:18 16.98 
3 *189:18 *941:A2 12.648 
4 *189:18 *189:35 4.5 
5 *189:35 *971:A1 6.552 
6 *189:35 *969:A1 4.5 
7 *189:8 *967:A1 10.216 
*END

*D_NET *190 0.00348508
*CONN
*I *969:A2 I *D gf180mcu_fd_sc_mcu7t5v0__nand2_1
*I *935:A2 I *D gf180mcu_fd_sc_mcu7t5v0__xor2_1
*I *971:B I *D gf180mcu_fd_sc_mcu7t5v0__aoi21_1
*I *1078:Q O *D gf180mcu_fd_sc_mcu7t5v0__dffrnq_1
*CAP
1 *969:A2 0.000173021
2 *935:A2 0.00030305
3 *971:B 0
4 *1078:Q 0.00012285
5 *190:19 0.000598483
6 *190:12 0.000245261
7 *935:A2 *191:34 0
8 *935:A2 *230:87 0.000134833
9 *969:A2 *975:A1 2.57058e-06
10 *190:12 *933:A1 1.42348e-05
11 *190:12 *973:A1 0.000378617
12 *190:12 *230:79 0.000300836
13 *190:19 *230:79 0.00013063
14 *941:A2 *935:A2 0
15 *949:A1 *935:A2 0.000450852
16 *949:A1 *969:A2 1.97747e-05
17 *949:A1 *190:19 9.88736e-06
18 *949:A2 *190:12 0
19 *949:A2 *190:19 1.85223e-05
20 *949:A3 *935:A2 1.8976e-05
21 *949:A3 *969:A2 1.49066e-06
22 *950:A4 *935:A2 4.07251e-05
23 *971:A1 *969:A2 0.00018402
24 *971:A1 *190:19 9.42885e-05
25 *974:A2 *190:12 0.000109303
26 *977:A2 *969:A2 3.12886e-06
27 *977:A2 *190:19 0
28 *1078:D *190:12 0.000129723
*RES
1 *1078:Q *190:12 15.476 
2 *190:12 *971:B 4.5 
3 *190:12 *190:19 0.988 
4 *190:19 *935:A2 15.704 
5 *190:19 *969:A2 5.868 
*END

*D_NET *191 0.00560632
*CONN
*I *945:A2 I *D gf180mcu_fd_sc_mcu7t5v0__xor2_1
*I *975:A1 I *D gf180mcu_fd_sc_mcu7t5v0__nand2_1
*I *977:A1 I *D gf180mcu_fd_sc_mcu7t5v0__aoi21_1
*I *973:A1 I *D gf180mcu_fd_sc_mcu7t5v0__xnor2_1
*I *1079:Q O *D gf180mcu_fd_sc_mcu7t5v0__dffrnq_1
*CAP
1 *945:A2 0
2 *975:A1 0.000143694
3 *977:A1 2.89045e-05
4 *973:A1 0.000914584
5 *1079:Q 0.000727025
6 *191:34 0.000546534
7 *191:26 0.000561495
8 *973:A1 *933:A1 0.000243355
9 *973:A1 *1078:RN 8.08741e-05
10 *975:A1 *977:B 0.00032464
11 *977:A1 *977:B 1.26428e-05
12 *191:26 *230:87 0.000336522
13 *935:A2 *191:34 0
14 *941:A2 *191:26 8.55242e-05
15 *941:A2 *191:34 0.000495387
16 *949:A1 *191:26 2.22758e-05
17 *949:A2 *973:A1 6.50181e-05
18 *949:A3 *191:26 0.000134564
19 *949:A4 *191:26 5.76373e-06
20 *969:A2 *975:A1 2.57058e-06
21 *971:A2 *973:A1 0.00015399
22 *977:A2 *973:A1 1.26428e-05
23 *977:A2 *977:A1 2.46622e-05
24 *977:A2 *191:26 3.34313e-05
25 *977:A2 *191:34 6.29287e-05
26 *978:A3 *191:34 0
27 *1078:D *973:A1 8.98247e-05
28 *115:8 *975:A1 7.18046e-05
29 *115:8 *191:34 5.20098e-06
30 *115:19 *975:A1 4.18464e-05
31 *116:12 *191:34 0
32 *190:12 *973:A1 0.000378617
*RES
1 *1079:Q *973:A1 23.548 
2 *973:A1 *191:26 6.704 
3 *191:26 *191:34 11.432 
4 *191:34 *977:A1 4.88 
5 *191:34 *975:A1 6.172 
6 *191:26 *945:A2 4.5 
*END

*D_NET *192 0.00298677
*CONN
*I *934:A2 I *D gf180mcu_fd_sc_mcu7t5v0__xor2_1
*I *975:A2 I *D gf180mcu_fd_sc_mcu7t5v0__nand2_1
*I *977:B I *D gf180mcu_fd_sc_mcu7t5v0__aoi21_1
*I *1080:Q O *D gf180mcu_fd_sc_mcu7t5v0__dffrnq_1
*CAP
1 *934:A2 0
2 *975:A2 0
3 *977:B 0.000111047
4 *1080:Q 0.000142253
5 *192:16 0.000294935
6 *192:8 0.000326141
7 *192:8 *934:A1 2.6126e-05
8 *192:16 *934:A1 0.00113976
9 *947:A1 *192:8 0
10 *975:A1 *977:B 0.00032464
11 *977:A1 *977:B 1.26428e-05
12 *978:A3 *977:B 3.01323e-05
13 *112:14 *192:16 0.00033338
14 *112:18 *192:16 0.000199473
15 *115:19 *977:B 0
16 *120:18 *192:8 3.74244e-05
17 *120:18 *192:16 8.81341e-06
*RES
1 *1080:Q *192:8 5.412 
2 *192:8 *192:16 11.888 
3 *192:16 *977:B 5.64 
4 *192:16 *975:A2 4.5 
5 *192:8 *934:A2 4.5 
*END

*D_NET *193 0.0072898
*CONN
*I *937:A2 I *D gf180mcu_fd_sc_mcu7t5v0__xor2_1
*I *982:A1 I *D gf180mcu_fd_sc_mcu7t5v0__aoi21_1
*I *979:A1 I *D gf180mcu_fd_sc_mcu7t5v0__xnor2_1
*I *981:A1 I *D gf180mcu_fd_sc_mcu7t5v0__and3_1
*I *988:A1 I *D gf180mcu_fd_sc_mcu7t5v0__nand4_1
*I *1081:Q O *D gf180mcu_fd_sc_mcu7t5v0__dffrnq_1
*CAP
1 *937:A2 0.000540068
2 *982:A1 0.000436742
3 *979:A1 0
4 *981:A1 0
5 *988:A1 8.49648e-05
6 *1081:Q 0.000123099
7 *193:34 0.000616169
8 *193:12 0.000222467
9 *193:10 0.00067238
10 *193:6 0.00101862
11 *982:A1 *1084:RN 3.17634e-05
12 *982:A1 *230:104 0
13 *988:A1 *981:A2 0.000431535
14 *988:A1 *990:A1 2.05156e-05
15 *988:A1 *194:12 0.000221732
16 *193:6 *1081:RN 0
17 *193:10 *1081:RN 9.70997e-05
18 *193:10 *194:12 4.91717e-05
19 *193:12 *990:A1 5.69263e-05
20 *193:12 *194:12 0.000156167
21 *193:34 *1084:RN 1.49066e-06
22 *193:34 *199:52 0.000829414
23 *193:34 *230:104 0
24 *193:34 *240:61 0.000301618
25 *193:34 *240:65 0.00021548
26 *948:A2 *982:A1 1.09972e-05
27 *979:A2 *982:A1 0
28 *979:A2 *193:34 7.45328e-07
29 *985:A1 *193:10 0
30 *985:A2 *193:10 3.83835e-06
31 *985:A2 *193:12 7.67669e-06
32 *986:A3 *193:10 4.63109e-05
33 *988:A3 *982:A1 0
34 *988:A4 *982:A1 1.26383e-05
35 *990:A2 *982:A1 0.000611244
36 *25:18 *937:A2 0.000175439
37 *25:18 *193:34 0
38 *120:36 *982:A1 0.000285199
39 *123:8 *193:12 8.29149e-06
*RES
1 *1081:Q *193:6 5.184 
2 *193:6 *193:10 2.584 
3 *193:10 *193:12 1.14 
4 *193:12 *988:A1 6.02 
5 *193:12 *981:A1 4.5 
6 *193:10 *193:34 11.432 
7 *193:34 *979:A1 4.5 
8 *193:34 *982:A1 8.452 
9 *193:6 *937:A2 17.984 
*END

*D_NET *194 0.00663762
*CONN
*I *988:A2 I *D gf180mcu_fd_sc_mcu7t5v0__nand4_1
*I *981:A2 I *D gf180mcu_fd_sc_mcu7t5v0__and3_1
*I *982:B I *D gf180mcu_fd_sc_mcu7t5v0__aoi21_1
*I *940:A2 I *D gf180mcu_fd_sc_mcu7t5v0__xor2_1
*I *1082:Q O *D gf180mcu_fd_sc_mcu7t5v0__dffrnq_1
*CAP
1 *988:A2 0
2 *981:A2 0.000223538
3 *982:B 0
4 *940:A2 0.000430218
5 *1082:Q 0.000320883
6 *194:18 0.000685293
7 *194:16 0.000547208
8 *194:12 0.000389478
9 *940:A2 *230:104 0.000865512
10 *194:12 *1081:RN 0.000193942
11 *194:12 *1084:RN 2.23598e-06
12 *948:A2 *940:A2 7.50749e-05
13 *948:A2 *194:16 3.55124e-05
14 *979:A2 *940:A2 2.46401e-06
15 *981:A3 *940:A2 7.94518e-06
16 *981:A3 *981:A2 0.000502416
17 *981:A3 *194:18 3.51174e-05
18 *983:A3 *940:A2 0.000158735
19 *987:B *194:12 0.000545559
20 *988:A1 *981:A2 0.000431535
21 *988:A1 *194:12 0.000221732
22 *988:A3 *194:12 7.24161e-06
23 *989:A4 *981:A2 0.000317503
24 *989:A4 *194:12 1.5015e-05
25 *989:A4 *194:16 7.70843e-05
26 *120:25 *940:A2 0
27 *129:8 *981:A2 5.09899e-05
28 *181:10 *194:12 0.000148853
29 *181:10 *194:16 0.000141194
30 *193:10 *194:12 4.91717e-05
31 *193:12 *194:12 0.000156167
*RES
1 *1082:Q *194:12 8.452 
2 *194:12 *194:16 5.336 
3 *194:16 *194:18 1.444 
4 *194:18 *940:A2 12.648 
5 *194:18 *982:B 9 
6 *194:16 *981:A2 11.888 
7 *194:12 *988:A2 4.5 
*END

*D_NET *195 0.00152453
*CONN
*I *925:I I *D gf180mcu_fd_sc_mcu7t5v0__clkinv_1
*I *1005:B I *D gf180mcu_fd_sc_mcu7t5v0__aoi211_1
*I *1089:Q O *D gf180mcu_fd_sc_mcu7t5v0__dffrnq_1
*CAP
1 *925:I 0.000401253
2 *1005:B 0
3 *1089:Q 0.000242673
4 *195:8 0.000643926
5 *925:I *1012:A2 4.58601e-06
6 *1006:A1 *925:I 9.45347e-06
7 *1012:A1 *925:I 0.000149579
8 *1012:B *925:I 4.58601e-06
9 *1058:D *925:I 0
10 *1058:D *195:8 0
11 *1137:I *925:I 6.03906e-05
12 *38:16 *925:I 8.07844e-06
13 *38:25 *925:I 0
14 *39:40 *925:I 0
15 *39:40 *195:8 0
*RES
1 *1089:Q *195:8 10.292 
2 *195:8 *1005:B 9 
3 *195:8 *925:I 11.736 
*END

*D_NET *196 0.00605817
*CONN
*I *1092:I I *D gf180mcu_fd_sc_mcu7t5v0__clkbuf_16
*I *1091:I I *D gf180mcu_fd_sc_mcu7t5v0__clkbuf_16
*I *1094:I I *D gf180mcu_fd_sc_mcu7t5v0__clkbuf_16
*I *1093:I I *D gf180mcu_fd_sc_mcu7t5v0__clkbuf_16
*I *1090:Z O *D gf180mcu_fd_sc_mcu7t5v0__clkbuf_16
*CAP
1 *1092:I 0.000138372
2 *1091:I 0.000167998
3 *1094:I 0
4 *1093:I 2.52242e-05
5 *1090:Z 0.000231614
6 *196:73 0.000157036
7 *196:68 9.73622e-05
8 *196:52 0.000839832
9 *196:47 0.000867365
10 *196:31 9.40595e-05
11 *196:19 6.07143e-05
12 *196:15 0.000875452
13 *196:6 0.000860684
14 *1093:I *936:A1 0.000102838
15 *196:15 *936:A1 3.25235e-05
16 *196:15 *1087:CLK 0.000333958
17 *196:15 *200:43 9.50338e-05
18 *196:19 *936:A1 9.91191e-05
19 *196:31 *200:43 0.000140531
20 *196:47 *1074:CLK 0
21 *196:52 *1074:CLK 0
22 *950:A1 *196:6 0
23 *950:A1 *196:15 0
24 *950:A2 *196:15 7.60086e-05
25 *953:A1 *196:15 4.63008e-05
26 *996:A2 *1093:I 0.000113955
27 *996:A2 *196:19 9.91191e-05
28 *997:A1 *196:15 6.29048e-05
29 *997:A2 *196:15 0
30 *1061:D *1091:I 0
31 *1061:D *1092:I 3.64096e-05
32 *1061:D *196:52 0
33 *1061:D *196:68 0
34 *1074:D *196:52 0.000366542
35 *103:16 *196:15 3.14479e-05
36 *105:14 *196:15 5.76063e-06
*RES
1 *1090:Z *196:6 5.12157 
2 *196:6 *196:15 10.0344 
3 *196:15 *196:19 5.08357 
4 *196:19 *1093:I 5.13243 
5 *196:15 *196:31 0.836 
6 *196:31 *1094:I 9 
7 *1090:Z *196:47 5.184 
8 *196:47 *196:52 5.21414 
9 *196:52 *1091:I 5.06186 
10 *1091:I *196:68 5.06729 
11 *196:68 *196:73 0.116714 
12 *196:73 *1092:I 5.488 
*END

*D_NET *197 0.0124856
*CONN
*I *1078:CLK I *D gf180mcu_fd_sc_mcu7t5v0__dffrnq_1
*I *1079:CLK I *D gf180mcu_fd_sc_mcu7t5v0__dffrnq_1
*I *1073:CLK I *D gf180mcu_fd_sc_mcu7t5v0__dffrnq_1
*I *1076:CLK I *D gf180mcu_fd_sc_mcu7t5v0__dffrnq_1
*I *1062:CLK I *D gf180mcu_fd_sc_mcu7t5v0__dffsnq_1
*I *1063:CLK I *D gf180mcu_fd_sc_mcu7t5v0__dffsnq_1
*I *1064:CLK I *D gf180mcu_fd_sc_mcu7t5v0__dffsnq_1
*I *1065:CLK I *D gf180mcu_fd_sc_mcu7t5v0__dffsnq_1
*I *1091:Z O *D gf180mcu_fd_sc_mcu7t5v0__clkbuf_16
*CAP
1 *1078:CLK 0.000304832
2 *1079:CLK 3.28034e-05
3 *1073:CLK 0.00146485
4 *1076:CLK 0
5 *1062:CLK 0
6 *1063:CLK 0
7 *1064:CLK 0.000447847
8 *1065:CLK 0.000234363
9 *1091:Z 0.000153828
10 *197:83 0.000694467
11 *197:58 0.00184781
12 *197:22 0.000820883
13 *197:20 0.00102324
14 *197:8 0.00144043
15 *197:6 0.00144948
16 *1064:CLK *1036:I0 0.000680979
17 *1064:CLK *1036:S 0.000254734
18 *1065:CLK *1033:I0 0
19 *1073:CLK *939:A1 0
20 *1073:CLK *238:99 0.000219856
21 *1073:CLK *238:105 5.63729e-05
22 *1078:CLK *933:A1 0.000254112
23 *1078:CLK *943:A1 0
24 *197:6 *238:73 0
25 *197:6 *238:81 9.43111e-06
26 *197:8 *238:73 0
27 *197:20 *1065:SETN 2.9378e-06
28 *197:20 *1076:RN 0.00018401
29 *197:20 *238:20 2.96621e-05
30 *197:20 *238:24 0.000145096
31 *197:20 *238:28 5.87561e-06
32 *197:58 *238:81 0.000157855
33 *197:83 *943:A1 0
34 *957:A1 *197:83 0
35 *1034:I1 *1065:CLK 2.96621e-05
36 *1034:I1 *197:20 0
37 *1034:I1 *197:22 0.000155051
38 *1036:I1 *1064:CLK 0.00020108
39 *1064:D *1064:CLK 2.89664e-05
40 *1065:D *1065:CLK 7.24161e-06
41 *1073:D *197:83 0
42 *1076:D *1073:CLK 5.74414e-05
43 *1078:D *1078:CLK 7.24161e-06
44 *1106:I *1078:CLK 0
45 *1106:I *197:83 0
46 *1125:I *1078:CLK 2.30549e-05
47 *179:14 *197:83 2.333e-05
48 *188:10 *197:6 3.67389e-05
*RES
1 *1091:Z *197:6 5.488 
2 *197:6 *197:8 3.268 
3 *197:8 *197:20 14.624 
4 *197:20 *197:22 0.988 
5 *197:22 *1065:CLK 5.792 
6 *197:22 *1064:CLK 17.604 
7 *197:20 *1063:CLK 4.5 
8 *197:8 *1062:CLK 4.5 
9 *197:6 *197:58 14.548 
10 *197:58 *1076:CLK 4.5 
11 *197:58 *1073:CLK 20.796 
12 *1073:CLK *197:83 6.704 
13 *197:83 *1079:CLK 4.728 
14 *197:83 *1078:CLK 6.704 
*END

*D_NET *198 0.0132593
*CONN
*I *1070:CLK I *D gf180mcu_fd_sc_mcu7t5v0__dffrnq_1
*I *1071:CLK I *D gf180mcu_fd_sc_mcu7t5v0__dffrnq_1
*I *1072:CLK I *D gf180mcu_fd_sc_mcu7t5v0__dffrnq_1
*I *1068:CLK I *D gf180mcu_fd_sc_mcu7t5v0__dffsnq_1
*I *1067:CLK I *D gf180mcu_fd_sc_mcu7t5v0__dffsnq_1
*I *1066:CLK I *D gf180mcu_fd_sc_mcu7t5v0__dffsnq_1
*I *1061:CLK I *D gf180mcu_fd_sc_mcu7t5v0__dffsnq_1
*I *1069:CLK I *D gf180mcu_fd_sc_mcu7t5v0__dffrnq_1
*I *1092:Z O *D gf180mcu_fd_sc_mcu7t5v0__clkbuf_16
*CAP
1 *1070:CLK 0.000413617
2 *1071:CLK 0
3 *1072:CLK 0.00055603
4 *1068:CLK 0
5 *1067:CLK 0.00119502
6 *1066:CLK 3.73955e-05
7 *1061:CLK 0.000151888
8 *1069:CLK 0.00014869
9 *1092:Z 0
10 *198:77 0.00139918
11 *198:36 0.000850246
12 *198:30 0.00119938
13 *198:17 0.00144139
14 *198:15 0.00156225
15 *198:4 0.0004614
16 *1067:CLK *1029:I0 0
17 *1067:CLK *1045:A1 0
18 *1069:CLK *1041:B 0.000157386
19 *1072:CLK *926:I 8.73421e-05
20 *1072:CLK *225:16 0.000259167
21 *1072:CLK *250:30 0.000269872
22 *198:15 *1030:I0 0
23 *198:15 *1041:B 0.000106097
24 *198:15 *225:16 1.49066e-06
25 *198:17 *1025:A1 5.13352e-06
26 *198:17 *250:30 0.000232257
27 *198:36 *1029:I0 0
28 *198:36 *1029:I1 0
29 *198:36 *1045:A1 0
30 *198:77 *1037:I1 0
31 *198:77 *1042:A1 0.000692015
32 *198:77 *1044:I0 0
33 *198:77 *1045:A1 2.94576e-05
34 *1025:A2 *198:17 2.89888e-05
35 *1030:I1 *198:30 2.98535e-05
36 *1043:A1 *198:36 3.10417e-05
37 *1043:A2 *1067:CLK 3.9105e-05
38 *1044:I1 *1067:CLK 1.34435e-05
39 *1044:I1 *198:36 8.83282e-06
40 *1061:D *198:30 0.00027597
41 *1066:D *1067:CLK 4.58601e-06
42 *1066:D *198:36 8.00153e-05
43 *1067:D *1067:CLK 2.333e-05
44 *1068:D *198:30 7.24161e-06
45 *1068:D *198:36 5.91493e-05
46 *1070:D *1070:CLK 4.58601e-06
47 *1071:D *1070:CLK 5.26953e-05
48 *82:12 *1072:CLK 7.34023e-05
49 *82:12 *198:15 4.13816e-05
50 *82:12 *198:17 0.00013415
51 *156:26 *1066:CLK 5.38278e-06
52 *156:26 *1067:CLK 0.000729834
53 *156:26 *198:36 0.000359572
*RES
1 *1092:Z *198:4 4.5 
2 *198:4 *1069:CLK 5.792 
3 *198:4 *198:15 6.552 
4 *198:15 *198:17 5.396 
5 *198:17 *1061:CLK 9.684 
6 *198:17 *198:30 8.832 
7 *198:30 *198:36 4.636 
8 *198:36 *1066:CLK 4.728 
9 *198:36 *1067:CLK 6.704 
10 *198:30 *1068:CLK 4.5 
11 *198:15 *1072:CLK 13.712 
12 *1067:CLK *198:77 21.632 
13 *198:77 *1071:CLK 4.5 
14 *198:77 *1070:CLK 6.932 
*END

*D_NET *199 0.0198836
*CONN
*I *1075:CLK I *D gf180mcu_fd_sc_mcu7t5v0__dffrnq_1
*I *1085:CLK I *D gf180mcu_fd_sc_mcu7t5v0__dffrnq_1
*I *1083:CLK I *D gf180mcu_fd_sc_mcu7t5v0__dffrnq_1
*I *1081:CLK I *D gf180mcu_fd_sc_mcu7t5v0__dffrnq_1
*I *1082:CLK I *D gf180mcu_fd_sc_mcu7t5v0__dffrnq_1
*I *1084:CLK I *D gf180mcu_fd_sc_mcu7t5v0__dffrnq_1
*I *1095:I I *D gf180mcu_fd_sc_mcu7t5v0__clkbuf_2
*I *1077:CLK I *D gf180mcu_fd_sc_mcu7t5v0__dffrnq_1
*I *1080:CLK I *D gf180mcu_fd_sc_mcu7t5v0__dffrnq_1
*I *1093:Z O *D gf180mcu_fd_sc_mcu7t5v0__clkbuf_16
*CAP
1 *1075:CLK 0.000750979
2 *1085:CLK 0.000176715
3 *1083:CLK 0
4 *1081:CLK 0.000448051
5 *1082:CLK 3.28034e-05
6 *1084:CLK 0.000196014
7 *1095:I 0
8 *1077:CLK 0.000923262
9 *1080:CLK 0.000650481
10 *1093:Z 0.00100005
11 *199:61 0.000647651
12 *199:52 0.000750732
13 *199:48 0.000423297
14 *199:44 0.0010173
15 *199:14 0.00106062
16 *199:8 0.000432693
17 *1075:CLK *939:A1 0.00159312
18 *1080:CLK *934:A1 9.9508e-05
19 *1080:CLK *1080:RN 0.000633856
20 *1081:CLK *980:A1 0
21 *1085:CLK *938:A1 4.52293e-05
22 *1085:CLK *240:61 3.42838e-05
23 *199:14 *1080:RN 0.000147697
24 *199:44 *938:A1 5.14116e-06
25 *199:44 *1083:RN 2.22758e-05
26 *199:44 *240:61 1.20079e-05
27 *199:48 *240:61 0.000747055
28 *199:52 *983:A1 0.000242731
29 *199:52 *240:61 0.000109349
30 *938:A2 *199:44 0.00012759
31 *939:A2 *1075:CLK 0.000126613
32 *947:A1 *1077:CLK 0
33 *947:A1 *1080:CLK 0.000526238
34 *947:A1 *199:14 0.000335667
35 *951:A3 *1075:CLK 1.91222e-05
36 *952:A3 *1080:CLK 0.000364359
37 *952:A4 *199:44 0
38 *963:A2 *1075:CLK 0.000545567
39 *967:A1 *1077:CLK 0
40 *967:A1 *199:14 9.88736e-06
41 *968:A2 *1077:CLK 6.63909e-05
42 *983:A2 *1084:CLK 0
43 *983:A2 *199:52 0.0011669
44 *983:A3 *1084:CLK 0
45 *986:A2 *199:48 8.8425e-05
46 *986:A2 *199:52 0.000321954
47 *1076:D *1075:CLK 0
48 *1081:D *1081:CLK 0
49 *1082:D *1081:CLK 2.52728e-05
50 *1082:D *199:61 6.05076e-05
51 *1083:D *199:48 0.000301618
52 *1083:D *199:52 0.00014967
53 *1084:D *1084:CLK 7.24161e-06
54 *1142:I *199:44 8.17308e-05
55 *25:18 *199:52 0
56 *112:10 *1075:CLK 0
57 *123:12 *199:52 0.000750612
58 *180:10 *199:48 0.00063128
59 *180:16 *199:52 3.59618e-05
60 *188:23 *1075:CLK 8.2746e-05
61 *188:30 *1075:CLK 0.00011528
62 *189:18 *1075:CLK 0.000910634
63 *193:34 *199:52 0.000829414
*RES
1 *1093:Z *199:8 5.716 
2 *199:8 *199:14 6.476 
3 *199:14 *1080:CLK 15.916 
4 *199:14 *1077:CLK 10.14 
5 *199:8 *1095:I 4.5 
6 *1093:Z *199:44 9.744 
7 *199:44 *199:48 8.376 
8 *199:48 *199:52 11.112 
9 *199:52 *1084:CLK 5.64 
10 *199:52 *199:61 1.14 
11 *199:61 *1082:CLK 4.728 
12 *199:61 *1081:CLK 7.388 
13 *199:48 *1083:CLK 9 
14 *199:44 *1085:CLK 5.64 
15 *1077:CLK *1075:CLK 17.588 
*END

*D_NET *200 0.0127441
*CONN
*I *1059:CLK I *D gf180mcu_fd_sc_mcu7t5v0__dffrnq_1
*I *1060:CLK I *D gf180mcu_fd_sc_mcu7t5v0__dffrnq_1
*I *1088:CLK I *D gf180mcu_fd_sc_mcu7t5v0__dffrnq_1
*I *1086:CLK I *D gf180mcu_fd_sc_mcu7t5v0__dffrnq_1
*I *1096:I I *D gf180mcu_fd_sc_mcu7t5v0__clkbuf_2
*I *1087:CLK I *D gf180mcu_fd_sc_mcu7t5v0__dffrnq_1
*I *1058:CLK I *D gf180mcu_fd_sc_mcu7t5v0__dffrnq_1
*I *1089:CLK I *D gf180mcu_fd_sc_mcu7t5v0__dffrnq_1
*I *1074:CLK I *D gf180mcu_fd_sc_mcu7t5v0__dffrnq_1
*I *1094:Z O *D gf180mcu_fd_sc_mcu7t5v0__clkbuf_16
*CAP
1 *1059:CLK 0
2 *1060:CLK 0.000405018
3 *1088:CLK 0.000318871
4 *1086:CLK 0
5 *1096:I 0
6 *1087:CLK 8.29519e-05
7 *1058:CLK 0
8 *1089:CLK 0
9 *1074:CLK 0.000964194
10 *1094:Z 0.00060959
11 *200:86 0.000991337
12 *200:59 0.00110916
13 *200:43 0.000549296
14 *200:39 0.00138588
15 *200:16 0.00136244
16 *200:8 0.000949992
17 *200:6 0.000704266
18 *1087:CLK *936:A1 0.000216988
19 *1088:CLK *1000:A1 1.97166e-05
20 *1088:CLK *1086:RN 4.16068e-05
21 *200:6 *241:59 0
22 *200:8 *241:59 0
23 *200:43 *936:A1 8.56396e-05
24 *954:A1 *200:16 9.88736e-06
25 *997:A1 *1087:CLK 0.000376901
26 *997:A2 *200:16 2.4706e-05
27 *998:A1 *200:59 0
28 *998:A2 *1088:CLK 2.9378e-06
29 *998:A2 *200:59 4.39941e-05
30 *1000:A2 *1088:CLK 7.41674e-05
31 *1000:A3 *1088:CLK 0.000103936
32 *1000:A3 *200:59 8.06016e-05
33 *1059:D *1060:CLK 0.000344447
34 *1059:D *200:86 4.97386e-06
35 *1061:D *1074:CLK 0
36 *1074:D *1074:CLK 0
37 *1089:D *1074:CLK 0
38 *1089:D *200:16 0
39 *1098:I *200:43 3.53241e-05
40 *83:12 *200:16 0.000834717
41 *103:16 *200:16 9.88736e-06
42 *105:22 *1087:CLK 2.57058e-06
43 *132:23 *200:59 5.88975e-06
44 *184:10 *200:8 3.56141e-05
45 *184:10 *200:39 3.32418e-05
46 *184:10 *200:43 3.02712e-05
47 *184:14 *200:43 1.96948e-05
48 *184:38 *200:59 9.32583e-05
49 *184:47 *200:59 0.000210596
50 *196:15 *1087:CLK 0.000333958
51 *196:15 *200:43 9.50338e-05
52 *196:31 *200:43 0.000140531
53 *196:47 *1074:CLK 0
54 *196:52 *1074:CLK 0
*RES
1 *1094:Z *200:6 4.728 
2 *200:6 *200:8 2.964 
3 *200:8 *200:16 12.496 
4 *200:16 *1074:CLK 10.276 
5 *200:16 *1089:CLK 4.5 
6 *200:8 *1058:CLK 4.5 
7 *200:6 *200:39 5.488 
8 *200:39 *200:43 7.616 
9 *200:43 *1087:CLK 6.4 
10 *200:43 *1096:I 4.5 
11 *200:39 *200:59 10.2 
12 *200:59 *1086:CLK 4.5 
13 *200:59 *1088:CLK 15.932 
14 *1094:Z *200:86 7.996 
15 *200:86 *1060:CLK 16.388 
16 *200:86 *1059:CLK 4.5 
*END

*D_NET *201 0.00146961
*CONN
*I *1010:A1 I *D gf180mcu_fd_sc_mcu7t5v0__oai21_1
*I *1009:A1 I *D gf180mcu_fd_sc_mcu7t5v0__and2_1
*I *1103:Z O *D gf180mcu_fd_sc_mcu7t5v0__dlyb_1
*CAP
1 *1010:A1 5.43006e-06
2 *1009:A1 0.000242648
3 *1103:Z 0.000164217
4 *201:8 0.000412294
5 *1009:A1 *1069:RN 9.42485e-06
6 *1010:A1 *1072:RN 8.55242e-05
7 *201:8 *922:I 0
8 *1010:A2 *1009:A1 0.000305592
9 *1011:A2 *1009:A1 2.17248e-05
10 *142:10 *201:8 0
11 *143:15 *1009:A1 5.48282e-05
12 *144:19 *1009:A1 8.23984e-05
13 *144:19 *1010:A1 8.55242e-05
*RES
1 *1103:Z *201:8 9.988 
2 *201:8 *1009:A1 10.824 
3 *201:8 *1010:A1 9.228 
*END

*D_NET *202 0.0058504
*CONN
*I *932:A1 I *D gf180mcu_fd_sc_mcu7t5v0__xnor2_1
*I *1104:Z O *D gf180mcu_fd_sc_mcu7t5v0__dlyb_1
*CAP
1 *932:A1 0.00121411
2 *1104:Z 0.00121411
3 *932:A1 *933:A1 0
4 *932:A1 *935:A1 3.86561e-05
5 *932:A1 *959:A1 0
6 *932:A1 *972:A1 0.000605532
7 *932:A1 *230:32 0
8 *932:A1 *230:87 0.000914106
9 *932:A2 *932:A1 8.55242e-05
10 *950:A4 *932:A1 0
11 *951:A3 *932:A1 0.000538099
12 *952:A1 *932:A1 2.22657e-05
13 *964:A4 *932:A1 0
14 *1078:D *932:A1 0.00020944
15 *116:18 *932:A1 0.00100856
*RES
1 *1104:Z *932:A1 30.312 
*END

*D_NET *203 0.00501119
*CONN
*I *933:A1 I *D gf180mcu_fd_sc_mcu7t5v0__xnor2_1
*I *1105:Z O *D gf180mcu_fd_sc_mcu7t5v0__dlyb_1
*CAP
1 *933:A1 0.00131281
2 *1105:Z 0.00131281
3 *933:A1 *943:A1 6.43835e-05
4 *933:A1 *957:A2 3.60024e-05
5 *933:A1 *230:32 5.87561e-06
6 *933:A1 *230:49 1.21492e-05
7 *932:A1 *933:A1 0
8 *933:A2 *933:A1 0.00029375
9 *939:A2 *933:A1 0
10 *964:A1 *933:A1 3.41017e-05
11 *964:A2 *933:A1 0.000140167
12 *964:A4 *933:A1 0.000196485
13 *971:A2 *933:A1 0.00050272
14 *973:A1 *933:A1 0.000243355
15 *1078:D *933:A1 0
16 *1078:CLK *933:A1 0.000254112
17 *1125:I *933:A1 0.000147111
18 *111:8 *933:A1 9.34472e-05
19 *112:10 *933:A1 9.58397e-05
20 *116:18 *933:A1 0
21 *187:29 *933:A1 0.000251825
22 *190:12 *933:A1 1.42348e-05
*RES
1 *1105:Z *933:A1 30.236 
*END

*D_NET *204 0.00566728
*CONN
*I *939:A1 I *D gf180mcu_fd_sc_mcu7t5v0__xor2_1
*I *1106:Z O *D gf180mcu_fd_sc_mcu7t5v0__dlyb_1
*CAP
1 *939:A1 0.00144845
2 *1106:Z 0.00144845
3 *939:A1 *238:99 0.000304862
4 *939:A1 *238:105 3.93649e-05
5 *965:A1 *939:A1 0.000101246
6 *965:A2 *939:A1 0.000116459
7 *966:A2 *939:A1 8.74915e-05
8 *966:A3 *939:A1 8.0352e-06
9 *1073:CLK *939:A1 0
10 *1075:CLK *939:A1 0.00159312
11 *1079:D *939:A1 1.70277e-05
12 *179:14 *939:A1 0.000248619
13 *179:38 *939:A1 0.000254159
*RES
1 *1106:Z *939:A1 30.616 
*END

*D_NET *205 0.000429579
*CONN
*I *941:A1 I *D gf180mcu_fd_sc_mcu7t5v0__xor2_1
*I *1107:Z O *D gf180mcu_fd_sc_mcu7t5v0__dlyb_1
*CAP
1 *941:A1 0.000212497
2 *1107:Z 0.000212497
3 *941:A1 *934:A1 0
4 *941:A1 *945:A1 0
5 *941:A1 *948:A1 0
6 *941:A1 *230:87 0
7 *942:A2 *941:A1 4.58601e-06
*RES
1 *1107:Z *941:A1 19.368 
*END

*D_NET *206 0.000366582
*CONN
*I *935:A1 I *D gf180mcu_fd_sc_mcu7t5v0__xor2_1
*I *1108:Z O *D gf180mcu_fd_sc_mcu7t5v0__dlyb_1
*CAP
1 *935:A1 0.000163963
2 *1108:Z 0.000163963
3 *935:A1 *945:A1 0
4 *935:A1 *230:87 0
5 *932:A1 *935:A1 3.86561e-05
*RES
1 *1108:Z *935:A1 19.216 
*END

*D_NET *207 0.000373989
*CONN
*I *945:A1 I *D gf180mcu_fd_sc_mcu7t5v0__xor2_1
*I *1109:Z O *D gf180mcu_fd_sc_mcu7t5v0__dlyb_1
*CAP
1 *945:A1 0.000186994
2 *1109:Z 0.000186994
3 *945:A1 *230:87 0
4 *935:A1 *945:A1 0
5 *941:A1 *945:A1 0
*RES
1 *1109:Z *945:A1 19.216 
*END

*D_NET *208 0.00340699
*CONN
*I *934:A1 I *D gf180mcu_fd_sc_mcu7t5v0__xor2_1
*I *1110:Z O *D gf180mcu_fd_sc_mcu7t5v0__dlyb_1
*CAP
1 *934:A1 0.000809693
2 *1110:Z 0.000809693
3 *934:A1 *948:A1 0.000396912
4 *934:A1 *1080:RN 9.2629e-05
5 *941:A1 *934:A1 0
6 *947:A1 *934:A1 7.45328e-07
7 *978:A3 *934:A1 0
8 *1080:CLK *934:A1 9.9508e-05
9 *112:14 *934:A1 3.19219e-05
10 *192:8 *934:A1 2.6126e-05
11 *192:16 *934:A1 0.00113976
*RES
1 *1110:Z *934:A1 24.536 
*END

*D_NET *209 0.0006193
*CONN
*I *937:A1 I *D gf180mcu_fd_sc_mcu7t5v0__xor2_1
*I *1111:Z O *D gf180mcu_fd_sc_mcu7t5v0__dlyb_1
*CAP
1 *937:A1 0.00030965
2 *1111:Z 0.00030965
3 *937:A1 *938:A1 0
*RES
1 *1111:Z *937:A1 10.976 
*END

*D_NET *210 0.000503187
*CONN
*I *940:A1 I *D gf180mcu_fd_sc_mcu7t5v0__xor2_1
*I *1112:Z O *D gf180mcu_fd_sc_mcu7t5v0__dlyb_1
*CAP
1 *940:A1 0.000204448
2 *1112:Z 0.000204448
3 *940:A1 *230:87 1.15275e-05
4 *940:A1 *230:104 6.77492e-05
5 *942:A2 *940:A1 1.5015e-05
*RES
1 *1112:Z *940:A1 10.52 
*END

*D_NET *211 0.00105857
*CONN
*I *921:I I *D gf180mcu_fd_sc_mcu7t5v0__clkinv_1
*I *1113:Z O *D gf180mcu_fd_sc_mcu7t5v0__dlyb_1
*CAP
1 *921:I 0.000231579
2 *1113:Z 0.000231579
3 *921:I *1014:A4 0.000149579
4 *921:I *1140:I 0.00032464
5 *921:I *213:10 7.01996e-05
6 *39:12 *921:I 5.09899e-05
7 *40:14 *921:I 0
*RES
1 *1113:Z *921:I 11.432 
*END

*D_NET *212 0.00125142
*CONN
*I *1008:A1 I *D gf180mcu_fd_sc_mcu7t5v0__xor2_1
*I *1114:Z O *D gf180mcu_fd_sc_mcu7t5v0__dlyb_1
*CAP
1 *1008:A1 0.0001079
2 *1114:Z 0.0001079
3 *1008:A1 *1072:RN 2.22533e-05
4 *1008:A1 *241:38 0.000803732
5 *1010:B *1008:A1 0.000209639
*RES
1 *1114:Z *1008:A1 11.052 
*END

*D_NET *213 0.00338378
*CONN
*I *1016:A4 I *D gf180mcu_fd_sc_mcu7t5v0__nand4_1
*I *1015:A2 I *D gf180mcu_fd_sc_mcu7t5v0__nand2_1
*I *1115:Z O *D gf180mcu_fd_sc_mcu7t5v0__dlyb_1
*CAP
1 *1016:A4 5.90507e-05
2 *1015:A2 1.82975e-05
3 *1115:Z 0.000781729
4 *213:10 0.000859078
5 *213:10 *1014:A4 0.000326699
6 *213:10 *1140:I 7.57844e-05
7 tx_ready_o *213:10 0
8 *921:I *213:10 7.01996e-05
9 *1021:A1 *1015:A2 0.000142801
10 *1021:A1 *213:10 8.15645e-05
11 *1113:I *213:10 0
12 *1116:I *213:10 0
13 *39:12 *1016:A4 0.000317768
14 *39:20 *1016:A4 1.02578e-05
15 *40:14 *213:10 8.18373e-05
16 *40:45 *213:10 0
17 *74:51 *1016:A4 0.000462425
18 *75:15 *1015:A2 6.31034e-05
19 *75:15 *213:10 3.3188e-05
*RES
1 *1115:Z *213:10 14.624 
2 *213:10 *1015:A2 9.38 
3 *213:10 *1016:A4 10.368 
*END

*D_NET *214 0.00123549
*CONN
*I *1014:A4 I *D gf180mcu_fd_sc_mcu7t5v0__nand4_1
*I *1116:Z O *D gf180mcu_fd_sc_mcu7t5v0__dlyb_1
*CAP
1 *1014:A4 0.000121668
2 *1116:Z 0.000121668
3 *1014:A4 *1140:I 2.11901e-05
4 *921:I *1014:A4 0.000149579
5 *1014:A3 *1014:A4 0.000255722
6 *39:12 *1014:A4 2.05156e-05
7 *74:51 *1014:A4 0.000137776
8 *75:15 *1014:A4 8.06713e-05
9 *213:10 *1014:A4 0.000326699
*RES
1 *1116:Z *1014:A4 19.976 
*END

*D_NET *215 0.00161472
*CONN
*I *1102:I I *D gf180mcu_fd_sc_mcu7t5v0__dlyb_1
*I *1117:Z O *D gf180mcu_fd_sc_mcu7t5v0__dlyb_1
*CAP
1 *1102:I 0.000785885
2 *1117:Z 0.000785885
3 *1102:I *1100:I 4.29536e-05
4 *1117:I *1102:I 0
5 *58:10 *1102:I 0
*RES
1 *1117:Z *1102:I 13.636 
*END

*D_NET *216 0.00539205
*CONN
*I *1029:I0 I *D gf180mcu_fd_sc_mcu7t5v0__mux2_2
*I *1118:Z O *D gf180mcu_fd_sc_mcu7t5v0__dlyb_1
*CAP
1 *1029:I0 0.00147321
2 *1118:Z 0.00147321
3 *1029:I0 *1030:I0 0
4 *1029:I0 *1032:I0 0
5 *1029:I0 *1037:I0 3.14479e-05
6 *1029:I0 *1045:A1 0.0011565
7 *1029:I0 *235:10 0.00020409
8 *1029:I0 *251:8 0
9 *1030:S *1029:I0 0
10 *1037:S *1029:I0 0
11 *1043:A1 *1029:I0 0.000538178
12 *1046:B *1029:I0 0.00032464
13 *1067:D *1029:I0 8.73421e-05
14 *1067:CLK *1029:I0 0
15 *1068:D *1029:I0 0.000103428
16 *156:26 *1029:I0 0
17 *159:8 *1029:I0 0
18 *198:36 *1029:I0 0
*RES
1 *1118:Z *1029:I0 29.704 
*END

*D_NET *217 0.00273515
*CONN
*I *1031:I0 I *D gf180mcu_fd_sc_mcu7t5v0__mux2_2
*I *1119:Z O *D gf180mcu_fd_sc_mcu7t5v0__dlyb_1
*CAP
1 *1031:I0 0.000597007
2 *1119:Z 0.000597007
3 *1031:I0 *1029:S 2.74661e-05
4 *1031:I0 *1031:S 0.000432249
5 *1031:I0 *1035:I0 0.000209639
6 *1031:I0 *1035:S 0.000845651
7 *1031:I0 *1044:S 0
8 *1031:I0 *1062:SETN 2.6126e-05
9 *1043:A2 *1031:I0 0
*RES
1 *1119:Z *1031:I0 14.396 
*END

*D_NET *218 0.00165487
*CONN
*I *1033:I0 I *D gf180mcu_fd_sc_mcu7t5v0__mux2_2
*I *1120:Z O *D gf180mcu_fd_sc_mcu7t5v0__dlyb_1
*CAP
1 *1033:I0 0.000684332
2 *1120:Z 0.000684332
3 *1033:I0 *1033:S 2.98136e-05
4 *1033:I0 *1038:S 0
5 *1033:I0 *1064:SETN 0.000208402
6 *1065:D *1033:I0 4.79898e-05
7 *1065:CLK *1033:I0 0
*RES
1 *1120:Z *1033:I0 13.56 
*END

*D_NET *219 0.000641318
*CONN
*I *1035:I0 I *D gf180mcu_fd_sc_mcu7t5v0__mux2_2
*I *1121:Z O *D gf180mcu_fd_sc_mcu7t5v0__dlyb_1
*CAP
1 *1035:I0 0.000215839
2 *1121:Z 0.000215839
3 *1031:I0 *1035:I0 0.000209639
*RES
1 *1121:Z *1035:I0 10.824 
*END

*D_NET *220 0.00072455
*CONN
*I *1037:I0 I *D gf180mcu_fd_sc_mcu7t5v0__mux2_2
*I *1122:Z O *D gf180mcu_fd_sc_mcu7t5v0__dlyb_1
*CAP
1 *1037:I0 0.000145213
2 *1122:Z 0.000145213
3 *1037:I0 *1037:I1 0.000396912
4 *1029:I0 *1037:I0 3.14479e-05
5 *1037:S *1037:I0 5.76373e-06
*RES
1 *1122:Z *1037:I0 19.368 
*END

*D_NET *221 0.0008661
*CONN
*I *1039:I0 I *D gf180mcu_fd_sc_mcu7t5v0__mux2_2
*I *1123:Z O *D gf180mcu_fd_sc_mcu7t5v0__dlyb_1
*CAP
1 *1039:I0 0.000400148
2 *1123:Z 0.000400148
3 *1039:I0 *256:8 2.07594e-05
4 *1039:S *1039:I0 4.50449e-05
5 *1123:I *1039:I0 0
*RES
1 *1123:Z *1039:I0 11.508 
*END

*D_NET *222 0.00264892
*CONN
*I *1042:A1 I *D gf180mcu_fd_sc_mcu7t5v0__nor2_1
*I *1124:Z O *D gf180mcu_fd_sc_mcu7t5v0__dlyb_1
*CAP
1 *1042:A1 0.000463787
2 *1124:Z 0.000463787
3 *1042:A1 *1037:I1 0.000437058
4 *1042:A1 *1044:I0 0
5 *1038:I1 *1042:A1 0
6 *1122:I *1042:A1 0.000438681
7 *1123:I *1042:A1 5.67499e-05
8 *1126:I *1042:A1 9.68431e-05
9 *198:77 *1042:A1 0.000692015
*RES
1 *1124:Z *1042:A1 24.08 
*END

*D_NET *223 0.00176547
*CONN
*I *943:A1 I *D gf180mcu_fd_sc_mcu7t5v0__xor2_1
*I *1125:Z O *D gf180mcu_fd_sc_mcu7t5v0__dlyb_1
*CAP
1 *943:A1 0.000322424
2 *1125:Z 0.000322424
3 *943:A1 *957:A2 0.000860258
4 *933:A1 *943:A1 6.43835e-05
5 *949:A2 *943:A1 0
6 *957:A1 *943:A1 8.55242e-05
7 *1078:CLK *943:A1 0
8 *1125:I *943:A1 3.62081e-05
9 *179:14 *943:A1 7.42484e-05
10 *197:83 *943:A1 0
*RES
1 *1125:Z *943:A1 21.344 
*END

*D_NET *224 0.0023525
*CONN
*I *1045:A1 I *D gf180mcu_fd_sc_mcu7t5v0__nor2_1
*I *1126:Z O *D gf180mcu_fd_sc_mcu7t5v0__dlyb_1
*CAP
1 *1045:A1 0.000253012
2 *1126:Z 0.000253012
3 *1045:A1 *1044:I0 0.000158878
4 *1029:I0 *1045:A1 0.0011565
5 *1043:A1 *1045:A1 0.00031512
6 *1044:I1 *1045:A1 0.000186515
7 *1067:CLK *1045:A1 0
8 *198:36 *1045:A1 0
9 *198:77 *1045:A1 2.94576e-05
*RES
1 *1126:Z *1045:A1 21.952 
*END

*D_NET *225 0.0067673
*CONN
*I *926:I I *D gf180mcu_fd_sc_mcu7t5v0__clkinv_1
*I *1041:A1 I *D gf180mcu_fd_sc_mcu7t5v0__aoi21_1
*I *1025:A1 I *D gf180mcu_fd_sc_mcu7t5v0__nand2_1
*I *1127:Z O *D gf180mcu_fd_sc_mcu7t5v0__dlyb_1
*CAP
1 *926:I 4.7004e-05
2 *1041:A1 0
3 *1025:A1 0.00011532
4 *1127:Z 0.000849783
5 *225:16 0.000537892
6 *225:10 0.00131936
7 *225:10 *1002:A2 4.57747e-05
8 *225:10 *1003:A2 0.000121076
9 *225:10 *1057:A1 4.72461e-05
10 *225:10 *247:8 8.91646e-05
11 *1025:A2 *1025:A1 0.000199473
12 *1055:A2 *225:10 0.000451288
13 *1072:D *225:10 7.45907e-05
14 *1072:CLK *926:I 8.73421e-05
15 *1072:CLK *225:16 0.000259167
16 *82:12 *926:I 0.00029375
17 *82:12 *1025:A1 0.000188292
18 *82:12 *225:16 0.00203416
19 *198:15 *225:16 1.49066e-06
20 *198:17 *1025:A1 5.13352e-06
*RES
1 *1127:Z *225:10 20.264 
2 *225:10 *225:16 9.972 
3 *225:16 *1025:A1 10.14 
4 *225:16 *1041:A1 9 
5 *225:10 *926:I 5.336 
*END

*D_NET *226 0.0022137
*CONN
*I *1017:A1 I *D gf180mcu_fd_sc_mcu7t5v0__nand3_1
*I *1138:I I *D gf180mcu_fd_sc_mcu7t5v0__dlyb_1
*I *955:A2 I *D gf180mcu_fd_sc_mcu7t5v0__nor2_1
*I *929:ZN O *D gf180mcu_fd_sc_mcu7t5v0__clkinv_1
*CAP
1 *1017:A1 5.70392e-05
2 *1138:I 0.000223236
3 *955:A2 0
4 *929:ZN 0.000165441
5 *226:14 0.000758551
6 *226:8 0.000757795
7 *1138:I *1140:I 9.58397e-05
8 *226:14 *240:118 1.72237e-05
9 *226:14 *241:38 0
10 *955:A1 *1138:I 1.15275e-05
11 *1020:A4 *226:14 0
12 *1023:A4 *1017:A1 6.3307e-05
13 *1023:A4 *226:8 4.63008e-05
14 *39:20 *226:14 0
15 *40:45 *1138:I 7.54771e-06
16 *145:14 *226:14 0
17 *146:18 *1017:A1 0
18 *146:18 *226:8 0
19 *146:27 *1017:A1 0
20 *146:50 *1017:A1 9.88736e-06
21 *146:50 *226:8 0
*RES
1 *929:ZN *226:8 5.564 
2 *226:8 *226:14 11.812 
3 *226:14 *955:A2 4.5 
4 *226:14 *1138:I 6.172 
5 *226:8 *1017:A1 5.032 
*END

*D_NET *227 0.000396506
*CONN
*I *1139:I I *D gf180mcu_fd_sc_mcu7t5v0__dlyb_1
*I *1004:ZN O *D gf180mcu_fd_sc_mcu7t5v0__aoi22_1
*CAP
1 *1139:I 0.000146857
2 *1004:ZN 0.000146857
3 *1139:I *241:38 6.68265e-05
4 *40:45 *1139:I 3.59666e-05
*RES
1 *1004:ZN *1139:I 10.064 
*END

*D_NET *228 0.00152651
*CONN
*I *1140:I I *D gf180mcu_fd_sc_mcu7t5v0__dlyb_1
*I *955:ZN O *D gf180mcu_fd_sc_mcu7t5v0__nor2_1
*CAP
1 *1140:I 0.000348738
2 *955:ZN 0.000348738
3 *921:I *1140:I 0.00032464
4 *955:A1 *1140:I 0.000306482
5 *1014:A4 *1140:I 2.11901e-05
6 *1138:I *1140:I 9.58397e-05
7 *74:51 *1140:I 5.09739e-06
8 *213:10 *1140:I 7.57844e-05
*RES
1 *955:ZN *1140:I 12.496 
*END

*D_NET *229 0.0126275
*CONN
*I *1040:S I *D gf180mcu_fd_sc_mcu7t5v0__mux2_2
*I *1032:S I *D gf180mcu_fd_sc_mcu7t5v0__mux2_2
*I *1034:S I *D gf180mcu_fd_sc_mcu7t5v0__mux2_2
*I *1038:S I *D gf180mcu_fd_sc_mcu7t5v0__mux2_2
*I *1036:S I *D gf180mcu_fd_sc_mcu7t5v0__mux2_2
*I *1044:S I *D gf180mcu_fd_sc_mcu7t5v0__mux2_2
*I *1134:Z O *D gf180mcu_fd_sc_mcu7t5v0__clkbuf_3
*CAP
1 *1040:S 0
2 *1032:S 2.6498e-05
3 *1034:S 0
4 *1038:S 0.0003981
5 *1036:S 0.000505595
6 *1044:S 0.000297004
7 *1134:Z 0.000627198
8 *229:33 0.00118831
9 *229:31 0.000669794
10 *229:27 0.000801489
11 *229:14 0.00117099
12 *229:10 0.00111138
13 *1032:S *1029:S 2.22657e-05
14 *1036:S *1033:S 0.000373799
15 *1036:S *1036:I0 0.000565216
16 *1036:S *253:10 0.000143376
17 *1038:S *1038:I0 0.000303928
18 *1038:S *1064:SETN 4.65224e-05
19 *1038:S *253:10 0.000123524
20 *1044:S *1031:S 0
21 *229:10 *1041:B 1.81888e-05
22 *229:10 *239:49 0.000298644
23 *229:27 *1032:I0 6.71936e-05
24 *229:27 *1062:SETN 1.80934e-05
25 *229:27 *251:8 3.43264e-05
26 *229:31 *1034:I0 0.000841569
27 *229:31 *1062:SETN 4.6766e-05
28 *229:31 *1076:RN 8.15645e-05
29 *229:31 *238:24 3.50929e-06
30 *229:33 *1064:SETN 2.7028e-05
31 *229:33 *1065:SETN 0
32 *229:33 *1076:RN 0.000348384
33 *229:33 *238:20 0.000429866
34 *229:33 *253:10 7.67669e-06
35 *1031:I0 *1044:S 0
36 *1032:I1 *1032:S 1.52691e-05
37 *1033:I0 *1038:S 0
38 *1036:I1 *1036:S 0
39 *1039:S *229:10 3.26833e-05
40 *1040:I1 *229:10 0.000140655
41 *1040:I1 *229:14 4.37185e-05
42 *1043:A2 *1044:S 7.50749e-05
43 *1062:D *229:31 0
44 *1064:CLK *1036:S 0.000254734
45 *1066:D *229:14 0.000135526
46 *1121:I *1038:S 1.15275e-05
47 *156:14 *229:10 1.48677e-05
48 *156:14 *229:14 5.94709e-06
49 *156:16 *229:14 5.24067e-05
50 *156:26 *1044:S 0.000303386
51 *156:26 *229:14 4.48611e-05
52 *156:26 *229:27 0.000164236
53 *166:10 *229:10 0.000734813
*RES
1 *1134:Z *229:10 14.472 
2 *229:10 *229:14 7.92 
3 *229:14 *1044:S 6.856 
4 *229:14 *229:27 7.54 
5 *229:27 *229:31 8.072 
6 *229:31 *229:33 2.508 
7 *229:33 *1036:S 18.668 
8 *229:33 *1038:S 7.844 
9 *229:31 *1034:S 4.5 
10 *229:27 *1032:S 9.228 
11 *229:10 *1040:S 9 
*END

*D_NET *230 0.0220336
*CONN
*I *959:A1 I *D gf180mcu_fd_sc_mcu7t5v0__nor2_1
*I *962:A1 I *D gf180mcu_fd_sc_mcu7t5v0__nor3_1
*I *972:A1 I *D gf180mcu_fd_sc_mcu7t5v0__nor3_1
*I *980:A1 I *D gf180mcu_fd_sc_mcu7t5v0__nor2_1
*I *983:A1 I *D gf180mcu_fd_sc_mcu7t5v0__nor3_1
*I *978:A1 I *D gf180mcu_fd_sc_mcu7t5v0__nor3_1
*I *974:A1 I *D gf180mcu_fd_sc_mcu7t5v0__nor2_1
*I *957:A2 I *D gf180mcu_fd_sc_mcu7t5v0__nor2_1
*I *966:A1 I *D gf180mcu_fd_sc_mcu7t5v0__nor3_1
*I *968:A1 I *D gf180mcu_fd_sc_mcu7t5v0__nor2_1
*I *1097:Z O *D gf180mcu_fd_sc_mcu7t5v0__dlyb_1
*CAP
1 *959:A1 0.000342576
2 *962:A1 0
3 *972:A1 0.00011127
4 *980:A1 0.000193891
5 *983:A1 0.000133128
6 *978:A1 0.000207381
7 *974:A1 0
8 *957:A2 0.000893806
9 *966:A1 0
10 *968:A1 8.49575e-05
11 *1097:Z 0.000656215
12 *230:104 0.000984087
13 *230:87 0.00184154
14 *230:79 0.00128432
15 *230:70 0.000195963
16 *230:49 0.00137564
17 *230:38 0.000674231
18 *230:32 0.000481439
19 *230:24 0.00120287
20 *230:79 *1078:RN 0.00060021
21 *932:A1 *959:A1 0
22 *932:A1 *972:A1 0.000605532
23 *932:A1 *230:32 0
24 *932:A1 *230:87 0.000914106
25 *933:A1 *957:A2 3.60024e-05
26 *933:A1 *230:32 5.87561e-06
27 *933:A1 *230:49 1.21492e-05
28 *933:A2 *230:24 0.000379274
29 *935:A1 *230:87 0
30 *935:A2 *230:87 0.000134833
31 *939:A2 *230:32 2.22758e-05
32 *940:A1 *230:87 1.15275e-05
33 *940:A1 *230:104 6.77492e-05
34 *940:A2 *230:104 0.000865512
35 *941:A1 *230:87 0
36 *941:A2 *230:87 0.000150323
37 *942:A1 *230:87 0.000147305
38 *942:A1 *230:104 0.00010198
39 *942:A2 *230:87 0.000183704
40 *943:A1 *957:A2 0.000860258
41 *945:A1 *230:87 0
42 *948:A2 *978:A1 0
43 *948:A2 *230:87 0.000368757
44 *948:A2 *230:104 1.02578e-05
45 *949:A2 *957:A2 4.71012e-05
46 *949:A2 *230:79 0
47 *949:A4 *230:87 0
48 *950:A4 *972:A1 5.3501e-05
49 *950:A4 *230:87 2.69281e-06
50 *952:A1 *230:24 0
51 *952:A3 *978:A1 6.01522e-05
52 *957:A1 *957:A2 0.000265669
53 *958:A1 *959:A1 0
54 *961:A2 *230:32 0
55 *964:A1 *230:32 0.000431535
56 *964:A2 *230:32 2.05156e-05
57 *964:A4 *230:32 0.00036947
58 *966:A2 *230:49 0.000164236
59 *971:A1 *230:79 0.00013063
60 *971:A2 *230:38 0
61 *971:A2 *230:49 0.00046552
62 *971:A2 *230:79 5.0907e-05
63 *974:A2 *230:79 0.000103946
64 *978:A3 *230:87 0
65 *979:A2 *230:104 0.000376071
66 *980:A2 *980:A1 0.000266216
67 *980:A2 *230:104 9.88736e-06
68 *982:A1 *230:104 0
69 *983:A3 *230:104 0.000309384
70 *1079:D *957:A2 4.46349e-05
71 *1081:CLK *980:A1 0
72 *1082:D *980:A1 0
73 *1082:D *230:104 0
74 *25:18 *983:A1 0
75 *109:8 *230:32 0.00032464
76 *111:8 *230:38 0
77 *112:10 *968:A1 0.000123561
78 *112:10 *230:24 0.000164347
79 *120:36 *230:104 0
80 *179:14 *957:A2 0
81 *179:14 *230:49 0
82 *179:38 *230:38 0.000820996
83 *179:38 *230:49 0
84 *186:10 *959:A1 0
85 *187:25 *959:A1 0
86 *187:29 *230:24 3.08902e-05
87 *188:23 *230:32 0.000128373
88 *188:30 *230:32 0.00011703
89 *190:12 *230:79 0.000300836
90 *190:19 *230:79 0.00013063
91 *191:26 *230:87 0.000336522
92 *193:34 *230:104 0
93 *199:52 *983:A1 0.000242731
*RES
1 *1097:Z *968:A1 9.76 
2 *1097:Z *230:24 13.104 
3 *230:24 *230:32 8.072 
4 *230:32 *230:38 11.052 
5 *230:38 *966:A1 4.5 
6 *230:38 *230:49 9.212 
7 *230:49 *957:A2 15.992 
8 *230:49 *230:70 4.5 
9 *230:70 *974:A1 4.5 
10 *230:70 *230:79 7.16 
11 *230:79 *230:87 13.696 
12 *230:87 *978:A1 14.488 
13 *230:87 *230:104 6.764 
14 *230:104 *983:A1 14.792 
15 *230:104 *980:A1 6.096 
16 *230:79 *972:A1 10.596 
17 *230:32 *962:A1 4.5 
18 *230:24 *959:A1 11.356 
*END

*D_NET *231 0.0112919
*CONN
*I *1000:A1 I *D gf180mcu_fd_sc_mcu7t5v0__nor3_1
*I *995:A1 I *D gf180mcu_fd_sc_mcu7t5v0__nor3_1
*I *986:A1 I *D gf180mcu_fd_sc_mcu7t5v0__nor3_1
*I *990:A1 I *D gf180mcu_fd_sc_mcu7t5v0__nor3_1
*I *992:A1 I *D gf180mcu_fd_sc_mcu7t5v0__nor2_1
*I *1098:Z O *D gf180mcu_fd_sc_mcu7t5v0__dlyb_1
*CAP
1 *1000:A1 0.000429033
2 *995:A1 0.000170129
3 *986:A1 4.89147e-05
4 *990:A1 0.000588075
5 *992:A1 0
6 *1098:Z 0
7 *231:23 0.00123105
8 *231:12 0.000938936
9 *231:6 0.000586398
10 *231:4 0.000500425
11 *1000:A1 *236:24 0.000101352
12 *231:6 *936:A1 1.38592e-06
13 *231:6 *236:24 0.000122747
14 *231:12 *1086:RN 9.52854e-05
15 *231:12 *236:12 7.09389e-05
16 *231:12 *236:24 0.000564509
17 *231:12 *240:48 2.90023e-05
18 *231:23 *236:12 6.52605e-05
19 *231:23 *240:48 7.50432e-05
20 *946:A2 *231:12 8.30371e-05
21 *951:A1 *1000:A1 0.000378617
22 *979:A2 *990:A1 5.32398e-05
23 *981:A3 *990:A1 0.000404056
24 *984:A2 *990:A1 5.14116e-06
25 *985:A1 *986:A1 5.97012e-05
26 *985:A2 *986:A1 7.83779e-05
27 *986:A2 *986:A1 3.5453e-06
28 *988:A1 *990:A1 2.05156e-05
29 *990:A3 *990:A1 0.000944121
30 *992:A2 *231:23 4.72007e-05
31 *995:A2 *995:A1 0.000191711
32 *995:A2 *1000:A1 0.00023197
33 *995:A2 *231:6 0.000317445
34 *995:A2 *231:12 8.8425e-05
35 *1085:D *231:23 0.000134622
36 *1088:CLK *1000:A1 1.97166e-05
37 *123:8 *986:A1 0.000125479
38 *123:8 *990:A1 5.4883e-05
39 *180:8 *231:23 0.00023481
40 *180:10 *231:23 0.00162532
41 *180:12 *231:23 0.000170989
42 *180:16 *990:A1 0.000196614
43 *180:16 *231:23 0.000146949
44 *183:17 *995:A1 0
45 *183:17 *231:6 0
46 *193:12 *990:A1 5.69263e-05
*RES
1 *1098:Z *231:4 4.5 
2 *231:4 *231:6 0.988 
3 *231:6 *231:12 12.724 
4 *231:12 *992:A1 4.5 
5 *231:12 *231:23 10.884 
6 *231:23 *990:A1 23.092 
7 *231:23 *986:A1 9.532 
8 *231:6 *995:A1 5.868 
9 *231:4 *1000:A1 16.844 
*END

*D_NET *232 0.00403335
*CONN
*I *1049:A2 I *D gf180mcu_fd_sc_mcu7t5v0__or2_1
*I *1047:I1 I *D gf180mcu_fd_sc_mcu7t5v0__mux2_2
*I *1028:A2 I *D gf180mcu_fd_sc_mcu7t5v0__nand2_1
*I *1046:A1 I *D gf180mcu_fd_sc_mcu7t5v0__aoi21_1
*I *1141:Z O *D gf180mcu_fd_sc_mcu7t5v0__clkbuf_1
*CAP
1 *1049:A2 7.65337e-05
2 *1047:I1 0.000141334
3 *1028:A2 0
4 *1046:A1 0.000100913
5 *1141:Z 0.000401237
6 *232:14 0.000785514
7 *232:12 0.000939696
8 *232:10 0.000591531
9 *232:10 *233:14 0
10 *1039:S *1046:A1 0
11 *1039:S *232:14 0
12 *1043:A1 *1046:A1 0.000158809
13 *1047:S *232:10 8.81478e-05
14 *1048:I *232:14 3.2709e-05
15 *1049:A1 *232:10 9.14616e-05
16 *1052:A1 *232:10 0
17 *1070:D *1049:A2 0
18 *1070:D *232:12 0
19 *76:20 *1049:A2 4.02664e-05
20 *156:14 *1046:A1 0
21 *156:16 *1046:A1 0
22 *166:10 *1046:A1 0.000308479
23 *166:10 *232:14 0.000276717
*RES
1 *1141:Z *232:10 12.192 
2 *232:10 *232:12 0.684 
3 *232:12 *232:14 5.244 
4 *232:14 *1046:A1 10.14 
5 *232:14 *1028:A2 9 
6 *232:12 *1047:I1 10.14 
7 *232:10 *1049:A2 9.684 
*END

*D_NET *233 0.00395814
*CONN
*I *1027:B I *D gf180mcu_fd_sc_mcu7t5v0__oai31_1
*I *1051:A1 I *D gf180mcu_fd_sc_mcu7t5v0__and2_1
*I *1047:I0 I *D gf180mcu_fd_sc_mcu7t5v0__mux2_2
*I *1135:Z O *D gf180mcu_fd_sc_mcu7t5v0__clkbuf_1
*CAP
1 *1027:B 0
2 *1051:A1 0.000110696
3 *1047:I0 6.35772e-05
4 *1135:Z 0.000442872
5 *233:14 0.000526644
6 *233:10 0.000795243
7 *1047:I0 *1069:RN 0
8 *1051:A1 *922:I 1.2427e-05
9 *1051:A1 *1069:RN 0
10 *1011:A1 *233:10 6.77492e-05
11 *1011:A1 *233:14 1.44832e-05
12 *1011:B *233:10 0.000947793
13 *1027:A1 *233:14 4.50449e-05
14 *1047:S *1051:A1 0
15 *1047:S *233:14 1.72912e-05
16 *1050:A1 *233:14 0.000111199
17 *1050:B2 *1051:A1 7.3227e-05
18 *1051:A2 *1051:A1 0.000108196
19 *1052:A1 *1051:A1 0.000390255
20 *1135:I *233:10 1.02578e-05
21 *76:20 *1047:I0 0.000129162
22 *76:20 *1051:A1 4.14758e-05
23 *142:21 *233:14 5.05494e-05
24 *232:10 *233:14 0
*RES
1 *1135:Z *233:10 8.376 
2 *233:10 *233:14 7.16 
3 *233:14 *1047:I0 9.684 
4 *233:14 *1051:A1 10.52 
5 *233:10 *1027:B 4.5 
*END

*D_NET *234 0.00276638
*CONN
*I *938:A1 I *D gf180mcu_fd_sc_mcu7t5v0__xnor2_1
*I *1128:Z O *D gf180mcu_fd_sc_mcu7t5v0__dlyb_1
*CAP
1 *938:A1 0.00104483
2 *1128:Z 0.00104483
3 *938:A1 *1083:RN 1.44734e-05
4 *938:A1 *240:61 8.97311e-05
5 *937:A1 *938:A1 0
6 *938:A2 *938:A1 0.00029773
7 *944:A2 *938:A1 0
8 *951:A4 *938:A1 1.20079e-05
9 *952:A2 *938:A1 1.72912e-05
10 *1085:D *938:A1 0.000195121
11 *1085:CLK *938:A1 4.52293e-05
12 *1111:I *938:A1 0
13 *199:44 *938:A1 5.14116e-06
*RES
1 *1128:Z *938:A1 16.828 
*END

*D_NET *235 0.00989925
*CONN
*I *1029:S I *D gf180mcu_fd_sc_mcu7t5v0__mux2_2
*I *1031:S I *D gf180mcu_fd_sc_mcu7t5v0__mux2_2
*I *1035:S I *D gf180mcu_fd_sc_mcu7t5v0__mux2_2
*I *1033:S I *D gf180mcu_fd_sc_mcu7t5v0__mux2_2
*I *1136:Z O *D gf180mcu_fd_sc_mcu7t5v0__buf_2
*CAP
1 *1029:S 0.000413213
2 *1031:S 0.000526697
3 *1035:S 0.00021429
4 *1033:S 0.000535931
5 *1136:Z 0.000671745
6 *235:12 0.000799909
7 *235:10 0.000834918
8 *1029:S *1029:I1 2.333e-05
9 *1029:S *1062:SETN 0.000787074
10 *1033:S *1033:I1 7.45328e-07
11 *1033:S *1038:I0 0
12 *1033:S *1064:SETN 2.96621e-05
13 *1033:S *1099:I 0.000977172
14 *1033:S *253:10 0.00065825
15 *1035:S *1035:I1 1.03097e-05
16 *235:10 *1099:I 0.0013166
17 *235:12 *1099:I 0.000109627
18 *1029:I0 *235:10 0.00020409
19 *1031:I0 *1029:S 2.74661e-05
20 *1031:I0 *1031:S 0.000432249
21 *1031:I0 *1035:S 0.000845651
22 *1032:I1 *1029:S 0
23 *1032:S *1029:S 2.22657e-05
24 *1033:I0 *1033:S 2.98136e-05
25 *1036:S *1033:S 0.000373799
26 *1044:S *1031:S 0
27 *1062:D *1029:S 0
28 *1066:D *235:10 5.44396e-05
*RES
1 *1136:Z *235:10 14.624 
2 *235:10 *235:12 0.38 
3 *235:12 *1033:S 14.624 
4 *235:12 *1035:S 11.204 
5 *235:10 *1031:S 10.14 
6 *1031:S *1029:S 12.572 
*END

*D_NET *236 0.0049478
*CONN
*I *991:A2 I *D gf180mcu_fd_sc_mcu7t5v0__xnor2_1
*I *993:A2 I *D gf180mcu_fd_sc_mcu7t5v0__aoi21_1
*I *994:A3 I *D gf180mcu_fd_sc_mcu7t5v0__and3_1
*I *1142:Z O *D gf180mcu_fd_sc_mcu7t5v0__dlyb_1
*CAP
1 *991:A2 1.29547e-05
2 *993:A2 0.000156903
3 *994:A3 0
4 *1142:Z 0.000216225
5 *236:24 0.000577158
6 *236:12 0.000649434
7 *993:A2 *936:A1 0.000372822
8 *236:24 *936:A1 0.000379582
9 *236:24 *1085:RN 0.000202774
10 *236:24 *240:48 0.000164443
11 *951:A1 *236:24 0
12 *951:A4 *991:A2 0.00025625
13 *951:A4 *236:12 0.000303305
14 *992:A2 *991:A2 0.000235713
15 *992:A2 *236:12 0.000193448
16 *993:A1 *993:A2 1.44832e-05
17 *995:A2 *993:A2 4.97558e-05
18 *995:A2 *236:24 0.000215228
19 *1000:A1 *236:24 0.000101352
20 *1085:D *236:12 2.25184e-05
21 *231:6 *236:24 0.000122747
22 *231:12 *236:12 7.09389e-05
23 *231:12 *236:24 0.000564509
24 *231:23 *236:12 6.52605e-05
*RES
1 *1142:Z *236:12 15.78 
2 *236:12 *236:24 14.472 
3 *236:24 *994:A3 4.5 
4 *236:24 *993:A2 6.248 
5 *236:12 *991:A2 5.184 
*END

*D_NET *237 0.00573613
*CONN
*I *929:I I *D gf180mcu_fd_sc_mcu7t5v0__clkinv_1
*I *1012:A2 I *D gf180mcu_fd_sc_mcu7t5v0__aoi21_1
*I *930:B I *D gf180mcu_fd_sc_mcu7t5v0__aoi21_1
*I *1005:C I *D gf180mcu_fd_sc_mcu7t5v0__aoi211_1
*I *1137:Z O *D gf180mcu_fd_sc_mcu7t5v0__clkbuf_1
*CAP
1 *929:I 2.67953e-05
2 *1012:A2 0.000398898
3 *930:B 0.000143483
4 *1005:C 6.40197e-05
5 *1137:Z 2.42058e-05
6 *237:36 0.000468871
7 *237:14 0.000382844
8 *237:8 0.000242725
9 *929:I *240:8 0.000136499
10 *929:I *240:118 9.57657e-05
11 *929:I *241:38 0.000199346
12 *930:B *1058:RN 0
13 *930:B *241:44 7.6687e-05
14 *1005:C *1058:RN 2.6126e-05
15 *237:14 *1058:RN 0.000220848
16 *237:14 *1101:I 0
17 *237:14 *240:8 0.000292242
18 *237:14 *241:38 7.8324e-05
19 *237:14 *241:44 0.000205795
20 *237:36 *240:8 0.00015172
21 *237:36 *241:38 0.000130876
22 *925:I *1012:A2 4.58601e-06
23 *930:A1 *930:B 0.000414445
24 *930:A1 *1005:C 3.71196e-05
25 *1006:A1 *1012:A2 9.26705e-05
26 *1012:B *1012:A2 1.66121e-06
27 *1019:A1 *1012:A2 0.000122115
28 *1019:A1 *237:8 0.000246965
29 *1058:D *930:B 0.000254643
30 *1058:D *1005:C 0
31 *1058:D *237:14 0
32 *38:16 *1005:C 0.000372137
33 *83:12 *930:B 1.2994e-05
34 *139:10 *1005:C 0.000483795
35 *146:18 *1012:A2 7.99628e-05
36 *146:18 *237:8 0.000246965
*RES
1 *1137:Z *237:8 9.684 
2 *237:8 *237:14 6.78 
3 *237:14 *1005:C 5.944 
4 *237:14 *930:B 15.476 
5 *237:8 *237:36 0.836 
6 *237:36 *1012:A2 11.66 
7 *237:36 *929:I 10.14 
*END

*D_NET *238 0.0163123
*CONN
*I *1073:RN I *D gf180mcu_fd_sc_mcu7t5v0__dffrnq_1
*I *1078:RN I *D gf180mcu_fd_sc_mcu7t5v0__dffrnq_1
*I *1079:RN I *D gf180mcu_fd_sc_mcu7t5v0__dffrnq_1
*I *1074:RN I *D gf180mcu_fd_sc_mcu7t5v0__dffrnq_1
*I *1075:RN I *D gf180mcu_fd_sc_mcu7t5v0__dffrnq_1
*I *1076:RN I *D gf180mcu_fd_sc_mcu7t5v0__dffrnq_1
*I *1062:SETN I *D gf180mcu_fd_sc_mcu7t5v0__dffsnq_1
*I *1063:SETN I *D gf180mcu_fd_sc_mcu7t5v0__dffsnq_1
*I *1065:SETN I *D gf180mcu_fd_sc_mcu7t5v0__dffsnq_1
*I *1064:SETN I *D gf180mcu_fd_sc_mcu7t5v0__dffsnq_1
*I *1099:Z O *D gf180mcu_fd_sc_mcu7t5v0__dlyb_1
*CAP
1 *1073:RN 6.83743e-05
2 *1078:RN 0.000178164
3 *1079:RN 0
4 *1074:RN 0.000265299
5 *1075:RN 0
6 *1076:RN 0.00107113
7 *1062:SETN 0.000446362
8 *1063:SETN 0
9 *1065:SETN 0.000284413
10 *1064:SETN 0.000383534
11 *1099:Z 0.000448704
12 *238:105 0.00052956
13 *238:99 0.00119124
14 *238:81 0.000850502
15 *238:73 0.00152564
16 *238:28 0.000319806
17 *238:24 0.000601767
18 *238:20 0.00108734
19 *1062:SETN *1029:I1 1.02823e-05
20 *1062:SETN *1031:I1 0.000469575
21 *1062:SETN *1032:I0 0.000376901
22 *1062:SETN *1034:I0 0.00010152
23 *1064:SETN *1033:I1 0
24 *1065:SETN *1031:I1 0
25 *1065:SETN *253:10 0.00018839
26 *238:24 *1034:I0 6.03845e-05
27 *238:28 *1031:I1 0
28 *939:A1 *238:99 0.000304862
29 *939:A1 *238:105 3.93649e-05
30 *949:A2 *1078:RN 0
31 *949:A2 *238:105 0
32 *965:A1 *238:99 0.000515627
33 *971:A2 *1078:RN 0.000181447
34 *973:A1 *1078:RN 8.08741e-05
35 *1029:S *1062:SETN 0.000787074
36 *1031:I0 *1062:SETN 2.6126e-05
37 *1033:I0 *1064:SETN 0.000208402
38 *1033:S *1064:SETN 2.96621e-05
39 *1034:I1 *1076:RN 0.000412903
40 *1038:S *1064:SETN 4.65224e-05
41 *1073:CLK *238:99 0.000219856
42 *1073:CLK *238:105 5.63729e-05
43 *1079:D *1078:RN 7.45046e-05
44 *1079:D *238:105 0.000147313
45 *179:8 *1073:RN 1.615e-05
46 *179:8 *238:105 0
47 *186:6 *1074:RN 5.76373e-06
48 *187:12 *1074:RN 4.71416e-05
49 *187:25 *1074:RN 0
50 *188:10 *238:73 1.615e-05
51 *188:10 *238:81 0
52 *188:10 *238:99 0.000546956
53 *197:6 *238:73 0
54 *197:6 *238:81 9.43111e-06
55 *197:8 *238:73 0
56 *197:20 *1065:SETN 2.9378e-06
57 *197:20 *1076:RN 0.00018401
58 *197:20 *238:20 2.96621e-05
59 *197:20 *238:24 0.000145096
60 *197:20 *238:28 5.87561e-06
61 *197:58 *238:81 0.000157855
62 *229:27 *1062:SETN 1.80934e-05
63 *229:31 *1062:SETN 4.6766e-05
64 *229:31 *1076:RN 8.15645e-05
65 *229:31 *238:24 3.50929e-06
66 *229:33 *1064:SETN 2.7028e-05
67 *229:33 *1065:SETN 0
68 *229:33 *1076:RN 0.000348384
69 *229:33 *238:20 0.000429866
70 *230:79 *1078:RN 0.00060021
*RES
1 *1099:Z *1064:SETN 11.888 
2 *1099:Z *238:20 5.64 
3 *238:20 *238:24 5.488 
4 *238:24 *238:28 4.728 
5 *238:28 *1065:SETN 6.704 
6 *238:28 *1063:SETN 4.5 
7 *238:24 *1062:SETN 14.168 
8 *238:20 *1076:RN 20.264 
9 *1076:RN *238:73 5.488 
10 *238:73 *238:81 12.8 
11 *238:81 *1075:RN 4.5 
12 *238:81 *1074:RN 6.248 
13 *238:73 *238:99 11.796 
14 *238:99 *238:105 6.932 
15 *238:105 *1079:RN 4.5 
16 *238:105 *1078:RN 6.932 
17 *238:99 *1073:RN 9.38 
*END

*D_NET *239 0.0186713
*CONN
*I *1072:RN I *D gf180mcu_fd_sc_mcu7t5v0__dffrnq_1
*I *1069:RN I *D gf180mcu_fd_sc_mcu7t5v0__dffrnq_1
*I *1070:RN I *D gf180mcu_fd_sc_mcu7t5v0__dffrnq_1
*I *1061:SETN I *D gf180mcu_fd_sc_mcu7t5v0__dffsnq_1
*I *1068:SETN I *D gf180mcu_fd_sc_mcu7t5v0__dffsnq_1
*I *1066:SETN I *D gf180mcu_fd_sc_mcu7t5v0__dffsnq_1
*I *1067:SETN I *D gf180mcu_fd_sc_mcu7t5v0__dffsnq_1
*I *1071:RN I *D gf180mcu_fd_sc_mcu7t5v0__dffrnq_1
*I *1100:Z O *D gf180mcu_fd_sc_mcu7t5v0__dlyb_1
*CAP
1 *1072:RN 0.00115652
2 *1069:RN 0.0002847
3 *1070:RN 3.59411e-05
4 *1061:SETN 0.00046498
5 *1068:SETN 0
6 *1066:SETN 0
7 *1067:SETN 0.000254685
8 *1071:RN 0.000239238
9 *1100:Z 0
10 *239:76 0.00205085
11 *239:49 0.000922217
12 *239:27 0.00030132
13 *239:23 0.00122811
14 *239:21 0.000798293
15 *239:19 0.000879899
16 *239:4 0.000471389
17 *1061:SETN *1030:I0 3.75433e-05
18 *1067:SETN *1037:I1 0.000128373
19 *1067:SETN *1040:I0 0.000198493
20 *1069:RN *922:I 4.64412e-05
21 *1071:RN *249:8 0
22 *1072:RN *1002:A2 0.000272886
23 *1072:RN *1003:A2 0
24 *1072:RN *241:38 0
25 *1072:RN *247:8 0.000103203
26 *239:19 *1099:I 0.000172977
27 *239:19 *241:8 1.3758e-05
28 *239:21 *1099:I 0.0001172
29 *239:23 *1099:I 0.00312079
30 *239:27 *1099:I 0.000135626
31 *239:49 *1040:I0 0.000479571
32 *239:76 *922:I 5.54829e-05
33 *239:76 *1008:A2 6.81277e-05
34 *239:76 *241:8 6.55805e-06
35 *239:76 *249:8 0.000154052
36 *239:76 *249:21 0.000185334
37 *924:I *239:19 9.45005e-06
38 *924:I *239:21 5.76281e-06
39 *924:I *239:23 3.80219e-06
40 *1007:A3 *1072:RN 7.78869e-05
41 *1008:A1 *1072:RN 2.22533e-05
42 *1009:A1 *1069:RN 9.42485e-06
43 *1010:A1 *1072:RN 8.55242e-05
44 *1010:B *1072:RN 6.77492e-05
45 *1010:B *239:76 7.6798e-06
46 *1011:A1 *1072:RN 0
47 *1011:A3 *1072:RN 1.64988e-05
48 *1011:B *1072:RN 0
49 *1025:A2 *1061:SETN 2.96621e-05
50 *1026:A3 *1072:RN 6.57222e-06
51 *1040:I1 *239:23 4.0011e-05
52 *1040:I1 *239:27 9.0247e-06
53 *1040:I1 *239:49 3.48947e-05
54 *1041:A2 *1061:SETN 7.83779e-05
55 *1047:I0 *1069:RN 0
56 *1050:A3 *1072:RN 7.195e-05
57 *1050:A3 *239:76 0.000414869
58 *1051:A1 *1069:RN 0
59 *1051:A2 *239:76 0
60 *1053:A2 *239:76 3.8218e-05
61 *1054:A2 *239:76 1.02823e-05
62 *1071:D *239:23 3.69894e-05
63 *1117:I *1071:RN 0
64 *1126:I *1067:SETN 0.000495697
65 *1141:I *1069:RN 9.71855e-05
66 *40:65 *1072:RN 0
67 *58:10 *1071:RN 0
68 *58:10 *239:19 6.40893e-05
69 *74:29 *1072:RN 0
70 *76:16 *239:76 0.000124925
71 *77:12 *239:76 0.000193933
72 *142:10 *1069:RN 0.000553172
73 *144:19 *1072:RN 0.000101674
74 *156:6 *1061:SETN 0.000327475
75 *156:6 *239:49 9.58397e-05
76 *156:12 *239:49 9.10393e-05
77 *166:10 *1061:SETN 0.000558612
78 *166:10 *239:49 0.000171927
79 *173:8 *239:76 3.56172e-05
80 *229:10 *239:49 0.000298644
*RES
1 *1100:Z *239:4 4.5 
2 *239:4 *1071:RN 6.02 
3 *239:4 *239:19 6.324 
4 *239:19 *239:21 0.38 
5 *239:21 *239:23 8.132 
6 *239:23 *239:27 4.88 
7 *239:27 *1067:SETN 7.084 
8 *239:27 *1066:SETN 4.5 
9 *239:23 *239:49 9.136 
10 *239:49 *1068:SETN 4.5 
11 *239:49 *1061:SETN 9.364 
12 *239:21 *1070:RN 9.228 
13 *239:19 *239:76 10.2 
14 *239:76 *1069:RN 16.16 
15 *239:76 *1072:RN 21.632 
*END

*D_NET *240 0.0267978
*CONN
*I *1060:RN I *D gf180mcu_fd_sc_mcu7t5v0__dffrnq_1
*I *1059:RN I *D gf180mcu_fd_sc_mcu7t5v0__dffrnq_1
*I *1058:RN I *D gf180mcu_fd_sc_mcu7t5v0__dffrnq_1
*I *1085:RN I *D gf180mcu_fd_sc_mcu7t5v0__dffrnq_1
*I *1081:RN I *D gf180mcu_fd_sc_mcu7t5v0__dffrnq_1
*I *1084:RN I *D gf180mcu_fd_sc_mcu7t5v0__dffrnq_1
*I *1082:RN I *D gf180mcu_fd_sc_mcu7t5v0__dffrnq_1
*I *1083:RN I *D gf180mcu_fd_sc_mcu7t5v0__dffrnq_1
*I *1080:RN I *D gf180mcu_fd_sc_mcu7t5v0__dffrnq_1
*I *1077:RN I *D gf180mcu_fd_sc_mcu7t5v0__dffrnq_1
*I *1101:Z O *D gf180mcu_fd_sc_mcu7t5v0__dlyb_1
*CAP
1 *1060:RN 0.000372034
2 *1059:RN 0
3 *1058:RN 0.000130412
4 *1085:RN 0.000306944
5 *1081:RN 0.000393906
6 *1084:RN 0.000193622
7 *1082:RN 0.000176195
8 *1083:RN 2.49275e-05
9 *1080:RN 0.000561306
10 *1077:RN 9.6564e-06
11 *1101:Z 0
12 *240:118 0.00160123
13 *240:65 0.000425343
14 *240:61 0.00108366
15 *240:48 0.000997409
16 *240:44 0.00120064
17 *240:25 0.00118235
18 *240:16 0.00105998
19 *240:8 0.00132219
20 *240:6 0.00143625
21 *240:8 *241:44 4.29636e-06
22 *240:16 *1087:RN 0.000218031
23 *240:16 *241:44 0.000285915
24 *240:16 *241:46 4.06416e-05
25 *240:118 *241:38 6.61664e-05
26 *918:I *1060:RN 0
27 *929:I *240:8 0.000136499
28 *929:I *240:118 9.57657e-05
29 *930:A1 *1058:RN 2.49331e-05
30 *930:B *1058:RN 0
31 *934:A1 *1080:RN 9.2629e-05
32 *938:A1 *1083:RN 1.44734e-05
33 *938:A1 *240:61 8.97311e-05
34 *938:A2 *1083:RN 2.6126e-05
35 *947:A1 *1080:RN 0.000327924
36 *947:A2 *240:44 0.00102624
37 *950:A2 *240:16 0.000533098
38 *951:A1 *1085:RN 0
39 *951:A1 *240:44 0.000654756
40 *951:A2 *240:44 0.000654756
41 *951:A3 *1077:RN 4.50449e-05
42 *951:A3 *240:25 0.000322807
43 *951:A3 *240:44 3.42838e-05
44 *954:A2 *240:16 0.000837332
45 *980:A2 *1082:RN 0
46 *982:A1 *1084:RN 3.17634e-05
47 *986:A2 *240:61 0.000387765
48 *987:A1 *1084:RN 5.87561e-06
49 *987:B *1084:RN 3.83835e-06
50 *988:A3 *1084:RN 4.63008e-05
51 *989:A1 *1080:RN 0.000199573
52 *989:A2 *1080:RN 0.000206711
53 *993:B *1085:RN 8.55327e-05
54 *994:A1 *1085:RN 1.53727e-05
55 *995:A2 *1085:RN 2.9801e-05
56 *1005:C *1058:RN 2.6126e-05
57 *1018:A3 *240:118 2.67619e-05
58 *1019:A2 *240:8 7.82633e-06
59 *1058:D *1058:RN 0
60 *1080:CLK *1080:RN 0.000633856
61 *1085:CLK *240:61 3.42838e-05
62 *1097:I *240:16 0.000190363
63 *25:18 *1077:RN 3.73535e-05
64 *25:18 *240:25 0.00011135
65 *25:18 *240:44 0.00039286
66 *25:18 *240:48 0
67 *25:18 *240:61 0
68 *25:18 *240:65 0
69 *40:14 *1060:RN 0.000341425
70 *40:45 *1060:RN 0
71 *83:12 *240:16 0
72 *105:14 *1080:RN 0.000387757
73 *105:14 *240:16 0
74 *105:22 *240:16 0.000308737
75 *112:14 *1080:RN 9.40591e-05
76 *145:14 *240:118 0
77 *146:18 *240:8 0.000286574
78 *146:50 *240:8 0
79 *146:50 *240:118 0
80 *180:8 *240:48 0.000269865
81 *180:10 *240:48 8.15645e-05
82 *180:10 *240:61 3.65162e-05
83 *182:10 *1085:RN 7.24161e-06
84 *183:17 *1085:RN 0.000547958
85 *184:10 *240:16 0.000203508
86 *184:14 *240:16 8.42664e-05
87 *189:8 *1080:RN 0.000232023
88 *189:8 *240:16 0.000387773
89 *189:18 *1080:RN 4.21332e-05
90 *193:6 *1081:RN 0
91 *193:10 *1081:RN 9.70997e-05
92 *193:34 *1084:RN 1.49066e-06
93 *193:34 *240:61 0.000301618
94 *193:34 *240:65 0.00021548
95 *194:12 *1081:RN 0.000193942
96 *194:12 *1084:RN 2.23598e-06
97 *199:14 *1080:RN 0.000147697
98 *199:44 *1083:RN 2.22758e-05
99 *199:44 *240:61 1.20079e-05
100 *199:48 *240:61 0.000747055
101 *199:52 *240:61 0.000109349
102 *226:14 *240:118 1.72237e-05
103 *231:12 *240:48 2.90023e-05
104 *231:23 *240:48 7.50432e-05
105 *236:24 *1085:RN 0.000202774
106 *236:24 *240:48 0.000164443
107 *237:14 *1058:RN 0.000220848
108 *237:14 *240:8 0.000292242
109 *237:36 *240:8 0.00015172
*RES
1 *1101:Z *240:6 9 
2 *240:6 *240:8 3.116 
3 *240:8 *240:16 16.28 
4 *240:16 *1077:RN 4.728 
5 *240:16 *240:25 0.988 
6 *240:25 *1080:RN 21.404 
7 *240:25 *240:44 12.556 
8 *240:44 *240:48 7.16 
9 *240:48 *1083:RN 4.728 
10 *240:48 *240:61 11.492 
11 *240:61 *240:65 5.032 
12 *240:65 *1082:RN 5.868 
13 *240:65 *1084:RN 5.64 
14 *240:61 *1081:RN 12.116 
15 *240:44 *1085:RN 11.888 
16 *240:8 *1058:RN 9.988 
17 *240:6 *240:118 15.688 
18 *240:118 *1059:RN 9 
19 *240:118 *1060:RN 11.432 
*END

*D_NET *241 0.0291742
*CONN
*I *1101:I I *D gf180mcu_fd_sc_mcu7t5v0__dlyb_1
*I *1089:RN I *D gf180mcu_fd_sc_mcu7t5v0__dffrnq_1
*I *1088:RN I *D gf180mcu_fd_sc_mcu7t5v0__dffrnq_1
*I *1086:RN I *D gf180mcu_fd_sc_mcu7t5v0__dffrnq_1
*I *1087:RN I *D gf180mcu_fd_sc_mcu7t5v0__dffrnq_1
*I *1100:I I *D gf180mcu_fd_sc_mcu7t5v0__dlyb_1
*I *1099:I I *D gf180mcu_fd_sc_mcu7t5v0__dlyb_1
*I *1102:Z O *D gf180mcu_fd_sc_mcu7t5v0__dlyb_1
*CAP
1 *1101:I 4.70999e-05
2 *1089:RN 0.00032598
3 *1088:RN 0.000166172
4 *1086:RN 0.000619088
5 *1087:RN 8.40723e-05
6 *1100:I 0.000300874
7 *1099:I 0.00157194
8 *1102:Z 0
9 *241:59 0.00215192
10 *241:46 0.0014843
11 *241:44 0.000655759
12 *241:38 0.00331281
13 *241:8 0.00198839
14 *241:4 0.00308507
15 *1099:I *1035:I1 0
16 *1099:I *1038:I0 0
17 *1099:I *1044:I0 0.00033989
18 *241:8 *249:8 5.4702e-05
19 *241:38 *1002:A2 2.83071e-05
20 *929:I *241:38 0.000199346
21 *930:A1 *241:44 0.000263429
22 *930:A2 *1089:RN 0.000104594
23 *930:A2 *241:59 4.2318e-06
24 *930:B *241:44 7.6687e-05
25 *995:A2 *1086:RN 7.90729e-05
26 *998:A1 *241:59 0
27 *1000:A2 *1088:RN 0
28 *1002:A1 *241:38 0.000262008
29 *1006:A1 *241:38 1.31444e-05
30 *1006:A2 *241:38 0.000103782
31 *1006:A2 *241:44 2.59502e-05
32 *1008:A1 *241:38 0.000803732
33 *1010:B *241:8 2.6126e-05
34 *1010:B *241:38 0.000908196
35 *1033:S *1099:I 0.000977172
36 *1040:I1 *1099:I 2.52322e-05
37 *1043:A2 *1099:I 7.84009e-05
38 *1058:D *1101:I 0.000135062
39 *1058:D *241:44 2.4013e-05
40 *1066:D *1099:I 3.68724e-06
41 *1072:RN *241:38 0
42 *1086:D *1086:RN 1.9162e-05
43 *1088:CLK *1086:RN 4.16068e-05
44 *1102:I *1100:I 4.29536e-05
45 *1114:I *241:38 0
46 *1117:I *1100:I 0
47 *1127:I *241:38 0
48 *1139:I *241:38 6.68265e-05
49 *39:20 *241:38 0.000255702
50 *40:45 *241:38 0
51 *58:10 *1100:I 5.70985e-05
52 *58:10 *241:8 0.000186116
53 *58:10 *241:38 9.88736e-06
54 *74:8 *241:38 3.4631e-05
55 *74:51 *241:38 8.52676e-05
56 *83:12 *1087:RN 0.000161612
57 *83:12 *241:44 6.55118e-05
58 *83:12 *241:46 2.65777e-05
59 *132:19 *1086:RN 0.000115959
60 *139:10 *241:44 0.000108139
61 *184:10 *241:59 4.68103e-05
62 *185:10 *1086:RN 0.000406043
63 *185:10 *1088:RN 0
64 *185:14 *1086:RN 0.000995592
65 *200:6 *241:59 0
66 *200:8 *241:59 0
67 *226:14 *241:38 0
68 *231:12 *1086:RN 9.52854e-05
69 *235:10 *1099:I 0.0013166
70 *235:12 *1099:I 0.000109627
71 *237:14 *1101:I 0
72 *237:14 *241:38 7.8324e-05
73 *237:14 *241:44 0.000205795
74 *237:36 *241:38 0.000130876
75 *239:19 *1099:I 0.000172977
76 *239:19 *241:8 1.3758e-05
77 *239:21 *1099:I 0.0001172
78 *239:23 *1099:I 0.00312079
79 *239:27 *1099:I 0.000135626
80 *239:76 *241:8 6.55805e-06
81 *240:8 *241:44 4.29636e-06
82 *240:16 *1087:RN 0.000218031
83 *240:16 *241:44 0.000285915
84 *240:16 *241:46 4.06416e-05
85 *240:118 *241:38 6.61664e-05
*RES
1 *1102:Z *241:4 4.5 
2 *241:4 *241:8 5.64 
3 *241:8 *1099:I 26.556 
4 *241:8 *1100:I 10.824 
5 *241:4 *241:38 26.844 
6 *241:38 *241:44 4.028 
7 *241:44 *241:46 0.38 
8 *241:46 *1087:RN 10.596 
9 *241:46 *241:59 12.48 
10 *241:59 *1086:RN 19.656 
11 *241:59 *1088:RN 5.412 
12 *241:44 *1089:RN 11.052 
13 *241:38 *1101:I 9.38 
*END

*D_NET *242 0.000960604
*CONN
*I *948:A1 I *D gf180mcu_fd_sc_mcu7t5v0__xor2_1
*I *1129:Z O *D gf180mcu_fd_sc_mcu7t5v0__dlyb_1
*CAP
1 *948:A1 0.000233589
2 *1129:Z 0.000233589
3 *934:A1 *948:A1 0.000396912
4 *941:A1 *948:A1 0
5 *942:A2 *948:A1 9.65141e-05
*RES
1 *1129:Z *948:A1 19.976 
*END

*D_NET *243 0.000832821
*CONN
*I *944:A1 I *D gf180mcu_fd_sc_mcu7t5v0__xor2_1
*I *1130:Z O *D gf180mcu_fd_sc_mcu7t5v0__dlyb_1
*CAP
1 *944:A1 0.000193502
2 *1130:Z 0.000193502
3 *944:A1 *946:A1 0.000445818
4 *944:A2 *944:A1 0
*RES
1 *1130:Z *944:A1 10.824 
*END

*D_NET *244 0.00298501
*CONN
*I *946:A1 I *D gf180mcu_fd_sc_mcu7t5v0__xor2_1
*I *1131:Z O *D gf180mcu_fd_sc_mcu7t5v0__dlyb_1
*CAP
1 *946:A1 0.000682734
2 *1131:Z 0.000682734
3 *944:A1 *946:A1 0.000445818
4 *944:A2 *946:A1 1.65795e-06
5 *951:A1 *946:A1 0.000768797
6 *951:A2 *946:A1 7.95076e-05
7 *993:B *946:A1 3.35538e-05
8 *1111:I *946:A1 0
9 *1128:I *946:A1 0
10 *1130:I *946:A1 0
11 *25:18 *946:A1 0.000290208
*RES
1 *1131:Z *946:A1 15.384 
*END

*D_NET *245 0.00603967
*CONN
*I *936:A1 I *D gf180mcu_fd_sc_mcu7t5v0__xnor2_1
*I *1132:Z O *D gf180mcu_fd_sc_mcu7t5v0__dlyb_1
*CAP
1 *936:A1 0.00124866
2 *1132:Z 0.00124866
3 *936:A1 *931:A1 8.22324e-05
4 *931:A2 *936:A1 0
5 *951:A1 *936:A1 0.00021136
6 *993:A2 *936:A1 0.000372822
7 *995:A2 *936:A1 0.000481067
8 *995:A3 *936:A1 0.000201027
9 *996:A2 *936:A1 0.000189673
10 *1087:D *936:A1 0
11 *1087:CLK *936:A1 0.000216988
12 *1093:I *936:A1 0.000102838
13 *1098:I *936:A1 2.97083e-05
14 *105:22 *936:A1 3.08902e-05
15 *132:8 *936:A1 0.000932049
16 *184:14 *936:A1 9.34472e-05
17 *196:15 *936:A1 3.25235e-05
18 *196:19 *936:A1 9.91191e-05
19 *200:43 *936:A1 8.56396e-05
20 *231:6 *936:A1 1.38592e-06
21 *236:24 *936:A1 0.000379582
*RES
1 *1132:Z *936:A1 30.692 
*END

*D_NET *246 0.000923904
*CONN
*I *931:A1 I *D gf180mcu_fd_sc_mcu7t5v0__xor2_1
*I *1133:Z O *D gf180mcu_fd_sc_mcu7t5v0__dlyb_1
*CAP
1 *931:A1 0.000402744
2 *1133:Z 0.000402744
3 *931:A2 *931:A1 2.57058e-06
4 *936:A1 *931:A1 8.22324e-05
5 *1131:I *931:A1 0
6 *1132:I *931:A1 3.36123e-05
*RES
1 *1133:Z *931:A1 11.812 
*END

*D_NET *247 0.00370201
*CONN
*I *1002:A2 I *D gf180mcu_fd_sc_mcu7t5v0__nand2_1
*I *1056:C I *D gf180mcu_fd_sc_mcu7t5v0__oai211_1
*I *1057:A1 I *D gf180mcu_fd_sc_mcu7t5v0__oai21_1
*I *1072:Q O *D gf180mcu_fd_sc_mcu7t5v0__dffrnq_1
*CAP
1 *1002:A2 0.000189765
2 *1056:C 0.000124528
3 *1057:A1 0.00015838
4 *1072:Q 0
5 *247:8 0.000464425
6 *247:6 0.000371281
7 *1002:A1 *1002:A2 7.24161e-06
8 *1004:B2 *1002:A2 3.07734e-05
9 *1007:A3 *1002:A2 6.9971e-06
10 *1026:A1 *1056:C 8.04139e-05
11 *1026:A2 *1056:C 2.63488e-06
12 *1026:A3 *1057:A1 0
13 *1026:A3 *247:8 0
14 *1056:B *1056:C 3.30454e-05
15 *1057:A2 *1057:A1 1.97747e-05
16 *1057:B *1056:C 0.000830586
17 *1072:D *1057:A1 0.000317503
18 *1072:RN *1002:A2 0.000272886
19 *1072:RN *247:8 0.000103203
20 *39:32 *1056:C 0.000140167
21 *74:14 *1056:C 1.20079e-05
22 *157:6 *1056:C 0.000171927
23 *157:6 *1057:A1 0.00015398
24 *225:10 *1002:A2 4.57747e-05
25 *225:10 *1057:A1 4.72461e-05
26 *225:10 *247:8 8.91646e-05
27 *241:38 *1002:A2 2.83071e-05
*RES
1 *1072:Q *247:6 9 
2 *247:6 *247:8 1.444 
3 *247:8 *1057:A1 10.672 
4 *247:8 *1056:C 11.356 
5 *247:6 *1002:A2 10.824 
*END

*D_NET *248 0.00143068
*CONN
*I *922:I I *D gf180mcu_fd_sc_mcu7t5v0__clkinv_1
*I *1069:Q O *D gf180mcu_fd_sc_mcu7t5v0__dffrnq_1
*CAP
1 *922:I 0.000389342
2 *1069:Q 0.000389342
3 *922:I *1008:A2 0.000255714
4 *1051:A1 *922:I 1.2427e-05
5 *1052:A1 *922:I 0
6 *1069:RN *922:I 4.64412e-05
7 *76:10 *922:I 7.2627e-05
8 *77:12 *922:I 0
9 *142:10 *922:I 0.000209309
10 *201:8 *922:I 0
11 *239:76 *922:I 5.54829e-05
*RES
1 *1069:Q *922:I 21.04 
*END

*D_NET *249 0.00331131
*CONN
*I *1008:A2 I *D gf180mcu_fd_sc_mcu7t5v0__xor2_1
*I *923:I I *D gf180mcu_fd_sc_mcu7t5v0__clkinv_1
*I *1053:A1 I *D gf180mcu_fd_sc_mcu7t5v0__nand2_1
*I *1070:Q O *D gf180mcu_fd_sc_mcu7t5v0__dffrnq_1
*CAP
1 *1008:A2 0.00011697
2 *923:I 0
3 *1053:A1 0.000207032
4 *1070:Q 0.000222226
5 *249:21 0.000198845
6 *249:8 0.000511133
7 *922:I *1008:A2 0.000255714
8 *924:I *1053:A1 1.99333e-05
9 *1010:B *1008:A2 0.000803732
10 *1010:B *249:8 0.000164236
11 *1010:B *249:21 0.000277032
12 *1054:A1 *1053:A1 2.59409e-05
13 *1071:RN *249:8 0
14 *77:12 *1008:A2 4.63008e-05
15 *239:76 *1008:A2 6.81277e-05
16 *239:76 *249:8 0.000154052
17 *239:76 *249:21 0.000185334
18 *241:8 *249:8 5.4702e-05
*RES
1 *1070:Q *249:8 6.476 
2 *249:8 *1053:A1 14.792 
3 *249:8 *249:21 1.596 
4 *249:21 *923:I 4.5 
5 *249:21 *1008:A2 6.78 
*END

*D_NET *250 0.00714336
*CONN
*I *1055:A1 I *D gf180mcu_fd_sc_mcu7t5v0__nand2_1
*I *1003:A2 I *D gf180mcu_fd_sc_mcu7t5v0__aoi211_1
*I *1030:I0 I *D gf180mcu_fd_sc_mcu7t5v0__mux2_2
*I *1061:Q O *D gf180mcu_fd_sc_mcu7t5v0__dffsnq_1
*CAP
1 *1055:A1 0
2 *1003:A2 0.000378985
3 *1030:I0 0.000770933
4 *1061:Q 0.00159351
5 *250:30 0.00120156
6 *1030:I0 *1041:B 0.000165258
7 *1007:A1 *1003:A2 0.000303928
8 *1007:A2 *1003:A2 0.000668373
9 *1007:A3 *1003:A2 2.96977e-05
10 *1011:B *1003:A2 8.55327e-05
11 *1029:I0 *1030:I0 0
12 *1030:S *1030:I0 0.000787185
13 *1041:A2 *1030:I0 8.81341e-06
14 *1055:A2 *1003:A2 0.000239414
15 *1057:B *1003:A2 2.96977e-05
16 *1061:SETN *1030:I0 3.75433e-05
17 *1072:RN *1003:A2 0
18 *1072:CLK *250:30 0.000269872
19 *1135:I *1003:A2 5.76373e-06
20 *1135:I *250:30 0
21 *166:10 *1030:I0 0.000213955
22 *198:15 *1030:I0 0
23 *198:17 *250:30 0.000232257
24 *225:10 *1003:A2 0.000121076
*RES
1 *1061:Q *1030:I0 24.536 
2 *1061:Q *250:30 19.732 
3 *250:30 *1003:A2 18.288 
4 *250:30 *1055:A1 4.5 
*END

*D_NET *251 0.00148704
*CONN
*I *1029:I1 I *D gf180mcu_fd_sc_mcu7t5v0__mux2_2
*I *1032:I0 I *D gf180mcu_fd_sc_mcu7t5v0__mux2_2
*I *1062:Q O *D gf180mcu_fd_sc_mcu7t5v0__dffsnq_1
*CAP
1 *1029:I1 0.000226982
2 *1032:I0 0.000198449
3 *1062:Q 6.20739e-05
4 *251:8 0.000487505
5 *1029:I0 *1032:I0 0
6 *1029:I0 *251:8 0
7 *1029:S *1029:I1 2.333e-05
8 *1062:SETN *1029:I1 1.02823e-05
9 *1062:SETN *1032:I0 0.000376901
10 *198:36 *1029:I1 0
11 *229:27 *1032:I0 6.71936e-05
12 *229:27 *251:8 3.43264e-05
*RES
1 *1062:Q *251:8 9.532 
2 *251:8 *1032:I0 10.824 
3 *251:8 *1029:I1 10.444 
*END

*D_NET *252 0.0022957
*CONN
*I *1034:I0 I *D gf180mcu_fd_sc_mcu7t5v0__mux2_2
*I *1031:I1 I *D gf180mcu_fd_sc_mcu7t5v0__mux2_2
*I *1063:Q O *D gf180mcu_fd_sc_mcu7t5v0__dffsnq_1
*CAP
1 *1034:I0 0.000210909
2 *1031:I1 0.00017339
3 *1063:Q 0
4 *252:4 0.000384298
5 *1032:I1 *1031:I1 7.24161e-06
6 *1032:I1 *1034:I0 4.68103e-05
7 *1062:SETN *1031:I1 0.000469575
8 *1062:SETN *1034:I0 0.00010152
9 *1065:SETN *1031:I1 0
10 *229:31 *1034:I0 0.000841569
11 *238:24 *1034:I0 6.03845e-05
12 *238:28 *1031:I1 0
*RES
1 *1063:Q *252:4 4.5 
2 *252:4 *1031:I1 15.02 
3 *252:4 *1034:I0 16.236 
*END

*D_NET *253 0.00444901
*CONN
*I *1033:I1 I *D gf180mcu_fd_sc_mcu7t5v0__mux2_2
*I *1036:I0 I *D gf180mcu_fd_sc_mcu7t5v0__mux2_2
*I *1064:Q O *D gf180mcu_fd_sc_mcu7t5v0__dffsnq_1
*CAP
1 *1033:I1 3.29369e-05
2 *1036:I0 0.000415856
3 *1064:Q 0.000487098
4 *253:10 0.00093589
5 *253:10 *1038:I0 0.000186796
6 *1033:S *1033:I1 7.45328e-07
7 *1033:S *253:10 0.00065825
8 *1034:I1 *1033:I1 2.22758e-05
9 *1036:S *1036:I0 0.000565216
10 *1036:S *253:10 0.000143376
11 *1038:S *253:10 0.000123524
12 *1064:SETN *1033:I1 0
13 *1064:CLK *1036:I0 0.000680979
14 *1065:SETN *253:10 0.00018839
15 *229:33 *253:10 7.67669e-06
*RES
1 *1064:Q *253:10 13.56 
2 *253:10 *1036:I0 13.256 
3 *253:10 *1033:I1 9.228 
*END

*D_NET *254 0.00190999
*CONN
*I *1035:I1 I *D gf180mcu_fd_sc_mcu7t5v0__mux2_2
*I *1038:I0 I *D gf180mcu_fd_sc_mcu7t5v0__mux2_2
*I *1065:Q O *D gf180mcu_fd_sc_mcu7t5v0__dffsnq_1
*CAP
1 *1035:I1 0.000220144
2 *1038:I0 0.000325194
3 *1065:Q 0
4 *254:6 0.000545338
5 *1033:S *1038:I0 0
6 *1035:S *1035:I1 1.03097e-05
7 *1036:I1 *1035:I1 6.7497e-05
8 *1036:I1 *1038:I0 0.00024053
9 *1038:S *1038:I0 0.000303928
10 *1099:I *1035:I1 0
11 *1099:I *1038:I0 0
12 *1121:I *1038:I0 1.02578e-05
13 *253:10 *1038:I0 0.000186796
*RES
1 *1065:Q *254:6 9 
2 *254:6 *1038:I0 12.496 
3 *254:6 *1035:I1 10.52 
*END

*D_NET *255 0.00445145
*CONN
*I *1040:I0 I *D gf180mcu_fd_sc_mcu7t5v0__mux2_2
*I *1037:I1 I *D gf180mcu_fd_sc_mcu7t5v0__mux2_2
*I *1066:Q O *D gf180mcu_fd_sc_mcu7t5v0__dffsnq_1
*CAP
1 *1040:I0 0.000338076
2 *1037:I1 0.000712153
3 *1066:Q 0.000192047
4 *255:8 0.00124228
5 *1037:I1 *256:8 0
6 *255:8 *1044:I0 2.23385e-05
7 *255:8 *256:8 1.5015e-05
8 *1037:I0 *1037:I1 0.000396912
9 *1039:S *255:8 1.29593e-05
10 *1040:I1 *1040:I0 3.80393e-05
11 *1040:I1 *255:8 0.00019843
12 *1042:A1 *1037:I1 0.000437058
13 *1067:SETN *1037:I1 0.000128373
14 *1067:SETN *1040:I0 0.000198493
15 *1123:I *1037:I1 2.22758e-05
16 *1126:I *1037:I1 1.74287e-05
17 *198:77 *1037:I1 0
18 *239:49 *1040:I0 0.000479571
*RES
1 *1066:Q *255:8 6.172 
2 *255:8 *1037:I1 19.884 
3 *255:8 *1040:I0 7.54 
*END

*D_NET *256 0.0026938
*CONN
*I *1044:I0 I *D gf180mcu_fd_sc_mcu7t5v0__mux2_2
*I *1039:I1 I *D gf180mcu_fd_sc_mcu7t5v0__mux2_2
*I *1067:Q O *D gf180mcu_fd_sc_mcu7t5v0__dffsnq_1
*CAP
1 *1044:I0 0.00070246
2 *1039:I1 0
3 *1067:Q 0.000160867
4 *256:8 0.000863327
5 *1037:I1 *256:8 0
6 *1039:I0 *256:8 2.07594e-05
7 *1039:S *1044:I0 1.52691e-05
8 *1039:S *256:8 7.24161e-06
9 *1042:A1 *1044:I0 0
10 *1043:A2 *1044:I0 0.000387757
11 *1045:A1 *1044:I0 0.000158878
12 *1099:I *1044:I0 0.00033989
13 *198:77 *1044:I0 0
14 *255:8 *1044:I0 2.23385e-05
15 *255:8 *256:8 1.5015e-05
*RES
1 *1067:Q *256:8 5.564 
2 *256:8 *1039:I1 4.5 
3 *256:8 *1044:I0 19.276 
*END

*D_NET *257 0.00124559
*CONN
*I *1041:B I *D gf180mcu_fd_sc_mcu7t5v0__aoi21_1
*I *1068:Q O *D gf180mcu_fd_sc_mcu7t5v0__dffsnq_1
*CAP
1 *1041:B 0.00039933
2 *1068:Q 0.00039933
3 *1030:I0 *1041:B 0.000165258
4 *1069:CLK *1041:B 0.000157386
5 *166:10 *1041:B 0
6 *198:15 *1041:B 0.000106097
7 *229:10 *1041:B 1.81888e-05
*RES
1 *1068:Q *1041:B 12.496 
*END
