*SPEF "ieee 1481-1999"
*DESIGN "udma_uart_rx"
*DATE "12:42:46 Sunday July 26, 2026"
*VENDOR "The OpenROAD Project"
*PROGRAM "OpenROAD"
*VERSION "dcf36133a369abc8f3c5e5738cd4d82e4903c0e0"
*DESIGN_FLOW "NAME_SCOPE LOCAL" "PIN_CAP NONE"
*DIVIDER /
*DELIMITER :
*BUS_DELIMITER []
*T_UNIT 1 NS
*C_UNIT 1 PF
*R_UNIT 1 OHM
*L_UNIT 1 HENRY

*NAME_MAP
*3 busy_o
*4 cfg_bits_i[0]
*5 cfg_bits_i[1]
*6 cfg_div_i[0]
*7 cfg_div_i[10]
*8 cfg_div_i[11]
*9 cfg_div_i[12]
*10 cfg_div_i[13]
*11 cfg_div_i[14]
*12 cfg_div_i[15]
*13 cfg_div_i[1]
*14 cfg_div_i[2]
*15 cfg_div_i[3]
*16 cfg_div_i[4]
*17 cfg_div_i[5]
*18 cfg_div_i[6]
*19 cfg_div_i[7]
*20 cfg_div_i[8]
*21 cfg_div_i[9]
*22 cfg_en_i
*23 cfg_parity_en_i
*24 cfg_stop_bits_i
*25 char_event_o
*26 clk_i
*27 err_overflow_o
*28 err_parity_o
*29 rstn_i
*30 rx_data_o[0]
*31 rx_data_o[1]
*32 rx_data_o[2]
*33 rx_data_o[3]
*34 rx_data_o[4]
*35 rx_data_o[5]
*36 rx_data_o[6]
*37 rx_data_o[7]
*38 rx_i
*39 rx_ready_i
*40 rx_valid_o
*41 CS\[0\]
*42 CS\[1\]
*43 CS\[2\]
*44 _000_
*45 _001_
*46 _002_
*47 _003_
*48 _004_
*49 _005_
*50 _006_
*51 _007_
*52 _008_
*53 _009_
*54 _010_
*55 _011_
*56 _012_
*57 _013_
*58 _014_
*59 _015_
*60 _016_
*61 _017_
*62 _018_
*63 _019_
*64 _020_
*65 _021_
*66 _022_
*67 _023_
*68 _024_
*69 _025_
*70 _026_
*71 _027_
*72 _028_
*73 _029_
*74 _030_
*75 _031_
*76 _032_
*77 _033_
*78 _034_
*79 _035_
*80 _036_
*81 _037_
*82 _038_
*83 _039_
*84 _040_
*85 _041_
*86 _042_
*87 _043_
*88 _044_
*89 _045_
*90 _046_
*91 _047_
*92 _048_
*93 _049_
*94 _050_
*95 _051_
*96 _052_
*97 _053_
*98 _054_
*99 _055_
*100 _056_
*101 _057_
*102 _058_
*103 _059_
*104 _060_
*105 _061_
*106 _062_
*107 _063_
*108 _064_
*109 _065_
*110 _066_
*111 _067_
*112 _068_
*113 _069_
*114 _070_
*115 _071_
*116 _072_
*117 _073_
*118 _074_
*119 _075_
*120 _076_
*121 _077_
*122 _078_
*123 _079_
*124 _080_
*125 _081_
*126 _082_
*127 _083_
*128 _084_
*129 _085_
*130 _086_
*131 _087_
*132 _088_
*133 _089_
*134 _090_
*135 _091_
*136 _092_
*137 _093_
*138 _094_
*139 _095_
*140 _096_
*141 _097_
*142 _098_
*143 _099_
*144 _100_
*145 _101_
*146 _102_
*147 _103_
*148 _104_
*149 _105_
*150 _106_
*151 _107_
*152 _108_
*153 _109_
*154 _110_
*155 _111_
*156 _112_
*157 _113_
*158 _114_
*159 _115_
*160 _116_
*161 _117_
*162 _118_
*163 _119_
*164 _120_
*165 _121_
*166 _122_
*167 _123_
*168 _124_
*169 _125_
*170 _126_
*171 _127_
*172 _128_
*173 _129_
*174 _130_
*175 _131_
*176 _132_
*177 _133_
*178 _134_
*179 _135_
*180 _136_
*181 _137_
*182 _138_
*183 _139_
*184 _140_
*185 _141_
*186 _142_
*187 _143_
*188 _144_
*189 _145_
*190 _146_
*191 _147_
*192 _148_
*193 _149_
*194 _150_
*195 _151_
*196 _152_
*197 _153_
*198 _154_
*199 _155_
*200 _156_
*201 _157_
*202 _158_
*203 _159_
*204 _160_
*205 _161_
*206 _162_
*207 _163_
*208 _164_
*209 _165_
*210 _166_
*211 _167_
*212 _168_
*213 _169_
*214 _170_
*215 _171_
*216 _172_
*217 _173_
*218 _174_
*219 _175_
*220 _176_
*221 _177_
*222 _178_
*223 _179_
*224 baud_cnt\[0\]
*225 baud_cnt\[10\]
*226 baud_cnt\[11\]
*227 baud_cnt\[12\]
*228 baud_cnt\[13\]
*229 baud_cnt\[14\]
*230 baud_cnt\[15\]
*231 baud_cnt\[1\]
*232 baud_cnt\[2\]
*233 baud_cnt\[3\]
*234 baud_cnt\[4\]
*235 baud_cnt\[5\]
*236 baud_cnt\[6\]
*237 baud_cnt\[7\]
*238 baud_cnt\[8\]
*239 baud_cnt\[9\]
*240 bit_done
*241 clknet_0_clk_i
*242 clknet_2_0__leaf_clk_i
*243 clknet_2_1__leaf_clk_i
*244 clknet_2_2__leaf_clk_i
*245 clknet_2_3__leaf_clk_i
*246 net1
*247 net10
*248 net11
*249 net12
*250 net13
*251 net14
*252 net15
*253 net16
*254 net17
*255 net18
*256 net19
*257 net2
*258 net20
*259 net21
*260 net22
*261 net23
*262 net24
*263 net25
*264 net26
*265 net27
*266 net28
*267 net29
*268 net3
*269 net30
*270 net31
*271 net32
*272 net33
*273 net34
*274 net35
*275 net36
*276 net37
*277 net38
*278 net39
*279 net4
*280 net40
*281 net41
*282 net42
*283 net43
*284 net44
*285 net5
*286 net6
*287 net7
*288 net8
*289 net9
*290 parity_bit
*291 r_error_parity
*292 reg_bit_count
*293 reg_rx_sync\[0\]
*294 reg_rx_sync\[1\]
*295 reg_rx_sync\[2\]
*296 FILLER_0_104
*297 FILLER_0_138
*298 FILLER_0_155
*299 FILLER_0_163
*300 FILLER_0_167
*301 FILLER_0_169
*302 FILLER_0_172
*303 FILLER_0_2
*304 FILLER_0_206
*305 FILLER_0_240
*306 FILLER_0_248
*307 FILLER_0_250
*308 FILLER_0_36
*309 FILLER_0_70
*310 FILLER_10_103
*311 FILLER_10_107
*312 FILLER_10_115
*313 FILLER_10_119
*314 FILLER_10_154
*315 FILLER_10_16
*316 FILLER_10_170
*317 FILLER_10_174
*318 FILLER_10_183
*319 FILLER_10_191
*320 FILLER_10_195
*321 FILLER_10_2
*322 FILLER_10_209
*323 FILLER_10_217
*324 FILLER_10_32
*325 FILLER_10_34
*326 FILLER_10_37
*327 FILLER_10_61
*328 FILLER_10_77
*329 FILLER_10_82
*330 FILLER_10_99
*331 FILLER_11_10
*332 FILLER_11_107
*333 FILLER_11_111
*334 FILLER_11_117
*335 FILLER_11_133
*336 FILLER_11_137
*337 FILLER_11_139
*338 FILLER_11_142
*339 FILLER_11_182
*340 FILLER_11_192
*341 FILLER_11_2
*342 FILLER_11_200
*343 FILLER_11_219
*344 FILLER_11_23
*345 FILLER_11_55
*346 FILLER_11_63
*347 FILLER_11_67
*348 FILLER_11_69
*349 FILLER_11_72
*350 FILLER_11_88
*351 FILLER_11_99
*352 FILLER_12_107
*353 FILLER_12_111
*354 FILLER_12_129
*355 FILLER_12_161
*356 FILLER_12_169
*357 FILLER_12_173
*358 FILLER_12_177
*359 FILLER_12_19
*360 FILLER_12_2
*361 FILLER_12_209
*362 FILLER_12_225
*363 FILLER_12_247
*364 FILLER_12_27
*365 FILLER_12_29
*366 FILLER_12_34
*367 FILLER_12_37
*368 FILLER_12_53
*369 FILLER_12_57
*370 FILLER_12_59
*371 FILLER_12_6
*372 FILLER_12_73
*373 FILLER_12_81
*374 FILLER_12_97
*375 FILLER_13_129
*376 FILLER_13_137
*377 FILLER_13_139
*378 FILLER_13_142
*379 FILLER_13_174
*380 FILLER_13_182
*381 FILLER_13_196
*382 FILLER_13_200
*383 FILLER_13_207
*384 FILLER_13_209
*385 FILLER_13_212
*386 FILLER_13_220
*387 FILLER_13_232
*388 FILLER_13_234
*389 FILLER_13_30
*390 FILLER_13_62
*391 FILLER_13_72
*392 FILLER_13_74
*393 FILLER_14_103
*394 FILLER_14_107
*395 FILLER_14_123
*396 FILLER_14_131
*397 FILLER_14_135
*398 FILLER_14_137
*399 FILLER_14_151
*400 FILLER_14_177
*401 FILLER_14_18
*402 FILLER_14_193
*403 FILLER_14_201
*404 FILLER_14_211
*405 FILLER_14_213
*406 FILLER_14_222
*407 FILLER_14_238
*408 FILLER_14_242
*409 FILLER_14_244
*410 FILLER_14_247
*411 FILLER_14_32
*412 FILLER_14_34
*413 FILLER_14_37
*414 FILLER_14_41
*415 FILLER_14_43
*416 FILLER_14_57
*417 FILLER_14_65
*418 FILLER_14_77
*419 FILLER_14_87
*420 FILLER_15_108
*421 FILLER_15_112
*422 FILLER_15_114
*423 FILLER_15_130
*424 FILLER_15_138
*425 FILLER_15_176
*426 FILLER_15_188
*427 FILLER_15_196
*428 FILLER_15_204
*429 FILLER_15_212
*430 FILLER_15_219
*431 FILLER_15_30
*432 FILLER_15_34
*433 FILLER_15_48
*434 FILLER_15_64
*435 FILLER_15_68
*436 FILLER_15_72
*437 FILLER_15_83
*438 FILLER_16_104
*439 FILLER_16_107
*440 FILLER_16_109
*441 FILLER_16_126
*442 FILLER_16_142
*443 FILLER_16_150
*444 FILLER_16_162
*445 FILLER_16_170
*446 FILLER_16_174
*447 FILLER_16_177
*448 FILLER_16_181
*449 FILLER_16_199
*450 FILLER_16_207
*451 FILLER_16_247
*452 FILLER_16_28
*453 FILLER_16_32
*454 FILLER_16_34
*455 FILLER_16_37
*456 FILLER_16_41
*457 FILLER_16_58
*458 FILLER_16_60
*459 FILLER_16_88
*460 FILLER_16_92
*461 FILLER_17_104
*462 FILLER_17_112
*463 FILLER_17_116
*464 FILLER_17_130
*465 FILLER_17_138
*466 FILLER_17_142
*467 FILLER_17_150
*468 FILLER_17_204
*469 FILLER_17_208
*470 FILLER_17_212
*471 FILLER_17_214
*472 FILLER_17_223
*473 FILLER_17_239
*474 FILLER_17_247
*475 FILLER_17_28
*476 FILLER_17_32
*477 FILLER_17_45
*478 FILLER_17_61
*479 FILLER_17_69
*480 FILLER_17_72
*481 FILLER_18_107
*482 FILLER_18_109
*483 FILLER_18_177
*484 FILLER_18_186
*485 FILLER_18_195
*486 FILLER_18_247
*487 FILLER_18_31
*488 FILLER_18_49
*489 FILLER_18_81
*490 FILLER_18_97
*491 FILLER_19_106
*492 FILLER_19_110
*493 FILLER_19_112
*494 FILLER_19_130
*495 FILLER_19_138
*496 FILLER_19_192
*497 FILLER_19_208
*498 FILLER_19_212
*499 FILLER_19_232
*500 FILLER_19_234
*501 FILLER_19_30
*502 FILLER_19_38
*503 FILLER_19_42
*504 FILLER_19_52
*505 FILLER_19_56
*506 FILLER_19_69
*507 FILLER_19_72
*508 FILLER_19_80
*509 FILLER_19_84
*510 FILLER_19_98
*511 FILLER_1_136
*512 FILLER_1_142
*513 FILLER_1_2
*514 FILLER_1_206
*515 FILLER_1_212
*516 FILLER_1_244
*517 FILLER_1_248
*518 FILLER_1_250
*519 FILLER_1_66
*520 FILLER_1_72
*521 FILLER_20_107
*522 FILLER_20_109
*523 FILLER_20_122
*524 FILLER_20_154
*525 FILLER_20_170
*526 FILLER_20_174
*527 FILLER_20_177
*528 FILLER_20_209
*529 FILLER_20_211
*530 FILLER_20_219
*531 FILLER_20_235
*532 FILLER_20_243
*533 FILLER_20_247
*534 FILLER_20_30
*535 FILLER_20_34
*536 FILLER_20_37
*537 FILLER_20_45
*538 FILLER_20_49
*539 FILLER_20_60
*540 FILLER_20_76
*541 FILLER_20_88
*542 FILLER_21_130
*543 FILLER_21_138
*544 FILLER_21_142
*545 FILLER_21_150
*546 FILLER_21_166
*547 FILLER_21_174
*548 FILLER_21_178
*549 FILLER_21_198
*550 FILLER_21_206
*551 FILLER_21_212
*552 FILLER_21_228
*553 FILLER_21_234
*554 FILLER_21_250
*555 FILLER_21_30
*556 FILLER_21_32
*557 FILLER_21_47
*558 FILLER_21_63
*559 FILLER_21_68
*560 FILLER_21_72
*561 FILLER_22_104
*562 FILLER_22_107
*563 FILLER_22_123
*564 FILLER_22_125
*565 FILLER_22_160
*566 FILLER_22_170
*567 FILLER_22_18
*568 FILLER_22_197
*569 FILLER_22_20
*570 FILLER_22_247
*571 FILLER_22_33
*572 FILLER_22_49
*573 FILLER_22_69
*574 FILLER_22_88
*575 FILLER_23_100
*576 FILLER_23_136
*577 FILLER_23_142
*578 FILLER_23_196
*579 FILLER_23_204
*580 FILLER_23_208
*581 FILLER_23_212
*582 FILLER_23_221
*583 FILLER_23_229
*584 FILLER_23_34
*585 FILLER_23_38
*586 FILLER_23_63
*587 FILLER_23_67
*588 FILLER_23_69
*589 FILLER_23_72
*590 FILLER_23_92
*591 FILLER_24_107
*592 FILLER_24_139
*593 FILLER_24_155
*594 FILLER_24_157
*595 FILLER_24_166
*596 FILLER_24_174
*597 FILLER_24_177
*598 FILLER_24_18
*599 FILLER_24_181
*600 FILLER_24_183
*601 FILLER_24_192
*602 FILLER_24_224
*603 FILLER_24_228
*604 FILLER_24_247
*605 FILLER_24_34
*606 FILLER_24_37
*607 FILLER_24_69
*608 FILLER_25_136
*609 FILLER_25_142
*610 FILLER_25_184
*611 FILLER_25_188
*612 FILLER_25_197
*613 FILLER_25_2
*614 FILLER_25_212
*615 FILLER_25_220
*616 FILLER_25_224
*617 FILLER_25_38
*618 FILLER_25_72
*619 FILLER_26_100
*620 FILLER_26_104
*621 FILLER_26_107
*622 FILLER_26_115
*623 FILLER_26_153
*624 FILLER_26_169
*625 FILLER_26_17
*626 FILLER_26_173
*627 FILLER_26_177
*628 FILLER_26_196
*629 FILLER_26_2
*630 FILLER_26_204
*631 FILLER_26_208
*632 FILLER_26_215
*633 FILLER_26_223
*634 FILLER_26_225
*635 FILLER_26_244
*636 FILLER_26_247
*637 FILLER_26_33
*638 FILLER_26_37
*639 FILLER_26_53
*640 FILLER_26_6
*641 FILLER_26_61
*642 FILLER_26_63
*643 FILLER_26_72
*644 FILLER_26_80
*645 FILLER_26_84
*646 FILLER_26_92
*647 FILLER_27_100
*648 FILLER_27_116
*649 FILLER_27_129
*650 FILLER_27_137
*651 FILLER_27_139
*652 FILLER_27_142
*653 FILLER_27_16
*654 FILLER_27_174
*655 FILLER_27_190
*656 FILLER_27_198
*657 FILLER_27_2
*658 FILLER_27_212
*659 FILLER_27_214
*660 FILLER_27_24
*661 FILLER_27_28
*662 FILLER_27_30
*663 FILLER_27_81
*664 FILLER_27_90
*665 FILLER_28_101
*666 FILLER_28_107
*667 FILLER_28_115
*668 FILLER_28_119
*669 FILLER_28_121
*670 FILLER_28_128
*671 FILLER_28_177
*672 FILLER_28_18
*673 FILLER_28_185
*674 FILLER_28_189
*675 FILLER_28_2
*676 FILLER_28_226
*677 FILLER_28_228
*678 FILLER_28_247
*679 FILLER_28_34
*680 FILLER_28_37
*681 FILLER_28_41
*682 FILLER_28_50
*683 FILLER_28_66
*684 FILLER_28_68
*685 FILLER_28_75
*686 FILLER_28_91
*687 FILLER_29_129
*688 FILLER_29_137
*689 FILLER_29_139
*690 FILLER_29_142
*691 FILLER_29_179
*692 FILLER_29_187
*693 FILLER_29_212
*694 FILLER_29_228
*695 FILLER_29_232
*696 FILLER_29_234
*697 FILLER_29_44
*698 FILLER_29_60
*699 FILLER_29_68
*700 FILLER_29_72
*701 FILLER_29_88
*702 FILLER_29_92
*703 FILLER_29_94
*704 FILLER_2_101
*705 FILLER_2_107
*706 FILLER_2_171
*707 FILLER_2_177
*708 FILLER_2_2
*709 FILLER_2_209
*710 FILLER_2_225
*711 FILLER_2_247
*712 FILLER_2_34
*713 FILLER_2_37
*714 FILLER_30_103
*715 FILLER_30_107
*716 FILLER_30_171
*717 FILLER_30_177
*718 FILLER_30_2
*719 FILLER_30_201
*720 FILLER_30_22
*721 FILLER_30_233
*722 FILLER_30_241
*723 FILLER_30_247
*724 FILLER_30_30
*725 FILLER_30_34
*726 FILLER_30_37
*727 FILLER_30_51
*728 FILLER_30_6
*729 FILLER_30_67
*730 FILLER_30_77
*731 FILLER_30_87
*732 FILLER_31_123
*733 FILLER_31_139
*734 FILLER_31_142
*735 FILLER_31_158
*736 FILLER_31_162
*737 FILLER_31_164
*738 FILLER_31_18
*739 FILLER_31_180
*740 FILLER_31_188
*741 FILLER_31_190
*742 FILLER_31_2
*743 FILLER_31_206
*744 FILLER_31_212
*745 FILLER_31_244
*746 FILLER_31_248
*747 FILLER_31_250
*748 FILLER_31_26
*749 FILLER_31_30
*750 FILLER_31_32
*751 FILLER_31_67
*752 FILLER_31_69
*753 FILLER_31_72
*754 FILLER_31_74
*755 FILLER_31_91
*756 FILLER_32_100
*757 FILLER_32_104
*758 FILLER_32_107
*759 FILLER_32_123
*760 FILLER_32_131
*761 FILLER_32_171
*762 FILLER_32_177
*763 FILLER_32_185
*764 FILLER_32_187
*765 FILLER_32_2
*766 FILLER_32_239
*767 FILLER_32_243
*768 FILLER_32_247
*769 FILLER_32_34
*770 FILLER_32_37
*771 FILLER_32_44
*772 FILLER_32_60
*773 FILLER_32_64
*774 FILLER_33_136
*775 FILLER_33_142
*776 FILLER_33_158
*777 FILLER_33_198
*778 FILLER_33_2
*779 FILLER_33_206
*780 FILLER_33_212
*781 FILLER_33_214
*782 FILLER_33_66
*783 FILLER_33_72
*784 FILLER_34_101
*785 FILLER_34_107
*786 FILLER_34_139
*787 FILLER_34_147
*788 FILLER_34_151
*789 FILLER_34_153
*790 FILLER_34_169
*791 FILLER_34_173
*792 FILLER_34_193
*793 FILLER_34_2
*794 FILLER_34_213
*795 FILLER_34_247
*796 FILLER_34_34
*797 FILLER_34_37
*798 FILLER_35_104
*799 FILLER_35_138
*800 FILLER_35_188
*801 FILLER_35_2
*802 FILLER_35_206
*803 FILLER_35_240
*804 FILLER_35_248
*805 FILLER_35_250
*806 FILLER_35_36
*807 FILLER_35_70
*808 FILLER_3_104
*809 FILLER_3_120
*810 FILLER_3_128
*811 FILLER_3_142
*812 FILLER_3_158
*813 FILLER_3_166
*814 FILLER_3_18
*815 FILLER_3_2
*816 FILLER_3_201
*817 FILLER_3_209
*818 FILLER_3_212
*819 FILLER_3_228
*820 FILLER_3_232
*821 FILLER_3_234
*822 FILLER_3_26
*823 FILLER_3_28
*824 FILLER_3_63
*825 FILLER_3_67
*826 FILLER_3_69
*827 FILLER_3_72
*828 FILLER_4_102
*829 FILLER_4_104
*830 FILLER_4_107
*831 FILLER_4_115
*832 FILLER_4_117
*833 FILLER_4_154
*834 FILLER_4_162
*835 FILLER_4_174
*836 FILLER_4_177
*837 FILLER_4_193
*838 FILLER_4_2
*839 FILLER_4_201
*840 FILLER_4_211
*841 FILLER_4_227
*842 FILLER_4_247
*843 FILLER_4_34
*844 FILLER_4_37
*845 FILLER_4_53
*846 FILLER_4_55
*847 FILLER_4_90
*848 FILLER_4_98
*849 FILLER_5_121
*850 FILLER_5_137
*851 FILLER_5_139
*852 FILLER_5_142
*853 FILLER_5_144
*854 FILLER_5_153
*855 FILLER_5_158
*856 FILLER_5_166
*857 FILLER_5_170
*858 FILLER_5_186
*859 FILLER_5_246
*860 FILLER_5_250
*861 FILLER_5_36
*862 FILLER_5_68
*863 FILLER_5_72
*864 FILLER_5_80
*865 FILLER_5_84
*866 FILLER_5_86
*867 FILLER_6_102
*868 FILLER_6_104
*869 FILLER_6_107
*870 FILLER_6_139
*871 FILLER_6_14
*872 FILLER_6_143
*873 FILLER_6_151
*874 FILLER_6_167
*875 FILLER_6_177
*876 FILLER_6_2
*877 FILLER_6_209
*878 FILLER_6_22
*879 FILLER_6_225
*880 FILLER_6_24
*881 FILLER_6_247
*882 FILLER_6_45
*883 FILLER_6_53
*884 FILLER_6_6
*885 FILLER_6_62
*886 FILLER_6_78
*887 FILLER_6_86
*888 FILLER_6_98
*889 FILLER_7_109
*890 FILLER_7_132
*891 FILLER_7_158
*892 FILLER_7_18
*893 FILLER_7_182
*894 FILLER_7_190
*895 FILLER_7_194
*896 FILLER_7_2
*897 FILLER_7_212
*898 FILLER_7_216
*899 FILLER_7_218
*900 FILLER_7_22
*901 FILLER_7_24
*902 FILLER_7_33
*903 FILLER_7_65
*904 FILLER_7_69
*905 FILLER_7_72
*906 FILLER_7_80
*907 FILLER_7_84
*908 FILLER_7_93
*909 FILLER_8_103
*910 FILLER_8_190
*911 FILLER_8_197
*912 FILLER_8_2
*913 FILLER_8_210
*914 FILLER_8_247
*915 FILLER_8_34
*916 FILLER_8_37
*917 FILLER_8_87
*918 FILLER_9_104
*919 FILLER_9_119
*920 FILLER_9_135
*921 FILLER_9_139
*922 FILLER_9_142
*923 FILLER_9_2
*924 FILLER_9_206
*925 FILLER_9_212
*926 FILLER_9_220
*927 FILLER_9_222
*928 FILLER_9_38
*929 FILLER_9_54
*930 FILLER_9_61
*931 FILLER_9_69
*932 FILLER_9_72
*933 PHY_EDGE_ROW_0_Left_36
*934 PHY_EDGE_ROW_0_Right_0
*935 PHY_EDGE_ROW_10_Left_46
*936 PHY_EDGE_ROW_10_Right_10
*937 PHY_EDGE_ROW_11_Left_47
*938 PHY_EDGE_ROW_11_Right_11
*939 PHY_EDGE_ROW_12_Left_48
*940 PHY_EDGE_ROW_12_Right_12
*941 PHY_EDGE_ROW_13_Left_49
*942 PHY_EDGE_ROW_13_Right_13
*943 PHY_EDGE_ROW_14_Left_50
*944 PHY_EDGE_ROW_14_Right_14
*945 PHY_EDGE_ROW_15_Left_51
*946 PHY_EDGE_ROW_15_Right_15
*947 PHY_EDGE_ROW_16_Left_52
*948 PHY_EDGE_ROW_16_Right_16
*949 PHY_EDGE_ROW_17_Left_53
*950 PHY_EDGE_ROW_17_Right_17
*951 PHY_EDGE_ROW_18_Left_54
*952 PHY_EDGE_ROW_18_Right_18
*953 PHY_EDGE_ROW_19_Left_55
*954 PHY_EDGE_ROW_19_Right_19
*955 PHY_EDGE_ROW_1_Left_37
*956 PHY_EDGE_ROW_1_Right_1
*957 PHY_EDGE_ROW_20_Left_56
*958 PHY_EDGE_ROW_20_Right_20
*959 PHY_EDGE_ROW_21_Left_57
*960 PHY_EDGE_ROW_21_Right_21
*961 PHY_EDGE_ROW_22_Left_58
*962 PHY_EDGE_ROW_22_Right_22
*963 PHY_EDGE_ROW_23_Left_59
*964 PHY_EDGE_ROW_23_Right_23
*965 PHY_EDGE_ROW_24_Left_60
*966 PHY_EDGE_ROW_24_Right_24
*967 PHY_EDGE_ROW_25_Left_61
*968 PHY_EDGE_ROW_25_Right_25
*969 PHY_EDGE_ROW_26_Left_62
*970 PHY_EDGE_ROW_26_Right_26
*971 PHY_EDGE_ROW_27_Left_63
*972 PHY_EDGE_ROW_27_Right_27
*973 PHY_EDGE_ROW_28_Left_64
*974 PHY_EDGE_ROW_28_Right_28
*975 PHY_EDGE_ROW_29_Left_65
*976 PHY_EDGE_ROW_29_Right_29
*977 PHY_EDGE_ROW_2_Left_38
*978 PHY_EDGE_ROW_2_Right_2
*979 PHY_EDGE_ROW_30_Left_66
*980 PHY_EDGE_ROW_30_Right_30
*981 PHY_EDGE_ROW_31_Left_67
*982 PHY_EDGE_ROW_31_Right_31
*983 PHY_EDGE_ROW_32_Left_68
*984 PHY_EDGE_ROW_32_Right_32
*985 PHY_EDGE_ROW_33_Left_69
*986 PHY_EDGE_ROW_33_Right_33
*987 PHY_EDGE_ROW_34_Left_70
*988 PHY_EDGE_ROW_34_Right_34
*989 PHY_EDGE_ROW_35_Left_71
*990 PHY_EDGE_ROW_35_Right_35
*991 PHY_EDGE_ROW_3_Left_39
*992 PHY_EDGE_ROW_3_Right_3
*993 PHY_EDGE_ROW_4_Left_40
*994 PHY_EDGE_ROW_4_Right_4
*995 PHY_EDGE_ROW_5_Left_41
*996 PHY_EDGE_ROW_5_Right_5
*997 PHY_EDGE_ROW_6_Left_42
*998 PHY_EDGE_ROW_6_Right_6
*999 PHY_EDGE_ROW_7_Left_43
*1000 PHY_EDGE_ROW_7_Right_7
*1001 PHY_EDGE_ROW_8_Left_44
*1002 PHY_EDGE_ROW_8_Right_8
*1003 PHY_EDGE_ROW_9_Left_45
*1004 PHY_EDGE_ROW_9_Right_9
*1005 TAP_TAPCELL_ROW_0_72
*1006 TAP_TAPCELL_ROW_0_73
*1007 TAP_TAPCELL_ROW_0_74
*1008 TAP_TAPCELL_ROW_0_75
*1009 TAP_TAPCELL_ROW_0_76
*1010 TAP_TAPCELL_ROW_0_77
*1011 TAP_TAPCELL_ROW_0_78
*1012 TAP_TAPCELL_ROW_10_110
*1013 TAP_TAPCELL_ROW_10_111
*1014 TAP_TAPCELL_ROW_10_112
*1015 TAP_TAPCELL_ROW_10_113
*1016 TAP_TAPCELL_ROW_11_114
*1017 TAP_TAPCELL_ROW_11_115
*1018 TAP_TAPCELL_ROW_11_116
*1019 TAP_TAPCELL_ROW_12_117
*1020 TAP_TAPCELL_ROW_12_118
*1021 TAP_TAPCELL_ROW_12_119
*1022 TAP_TAPCELL_ROW_12_120
*1023 TAP_TAPCELL_ROW_13_121
*1024 TAP_TAPCELL_ROW_13_122
*1025 TAP_TAPCELL_ROW_13_123
*1026 TAP_TAPCELL_ROW_14_124
*1027 TAP_TAPCELL_ROW_14_125
*1028 TAP_TAPCELL_ROW_14_126
*1029 TAP_TAPCELL_ROW_14_127
*1030 TAP_TAPCELL_ROW_15_128
*1031 TAP_TAPCELL_ROW_15_129
*1032 TAP_TAPCELL_ROW_15_130
*1033 TAP_TAPCELL_ROW_16_131
*1034 TAP_TAPCELL_ROW_16_132
*1035 TAP_TAPCELL_ROW_16_133
*1036 TAP_TAPCELL_ROW_16_134
*1037 TAP_TAPCELL_ROW_17_135
*1038 TAP_TAPCELL_ROW_17_136
*1039 TAP_TAPCELL_ROW_17_137
*1040 TAP_TAPCELL_ROW_18_138
*1041 TAP_TAPCELL_ROW_18_139
*1042 TAP_TAPCELL_ROW_18_140
*1043 TAP_TAPCELL_ROW_18_141
*1044 TAP_TAPCELL_ROW_19_142
*1045 TAP_TAPCELL_ROW_19_143
*1046 TAP_TAPCELL_ROW_19_144
*1047 TAP_TAPCELL_ROW_1_79
*1048 TAP_TAPCELL_ROW_1_80
*1049 TAP_TAPCELL_ROW_1_81
*1050 TAP_TAPCELL_ROW_20_145
*1051 TAP_TAPCELL_ROW_20_146
*1052 TAP_TAPCELL_ROW_20_147
*1053 TAP_TAPCELL_ROW_20_148
*1054 TAP_TAPCELL_ROW_21_149
*1055 TAP_TAPCELL_ROW_21_150
*1056 TAP_TAPCELL_ROW_21_151
*1057 TAP_TAPCELL_ROW_22_152
*1058 TAP_TAPCELL_ROW_22_153
*1059 TAP_TAPCELL_ROW_22_154
*1060 TAP_TAPCELL_ROW_22_155
*1061 TAP_TAPCELL_ROW_23_156
*1062 TAP_TAPCELL_ROW_23_157
*1063 TAP_TAPCELL_ROW_23_158
*1064 TAP_TAPCELL_ROW_24_159
*1065 TAP_TAPCELL_ROW_24_160
*1066 TAP_TAPCELL_ROW_24_161
*1067 TAP_TAPCELL_ROW_24_162
*1068 TAP_TAPCELL_ROW_25_163
*1069 TAP_TAPCELL_ROW_25_164
*1070 TAP_TAPCELL_ROW_25_165
*1071 TAP_TAPCELL_ROW_26_166
*1072 TAP_TAPCELL_ROW_26_167
*1073 TAP_TAPCELL_ROW_26_168
*1074 TAP_TAPCELL_ROW_26_169
*1075 TAP_TAPCELL_ROW_27_170
*1076 TAP_TAPCELL_ROW_27_171
*1077 TAP_TAPCELL_ROW_27_172
*1078 TAP_TAPCELL_ROW_28_173
*1079 TAP_TAPCELL_ROW_28_174
*1080 TAP_TAPCELL_ROW_28_175
*1081 TAP_TAPCELL_ROW_28_176
*1082 TAP_TAPCELL_ROW_29_177
*1083 TAP_TAPCELL_ROW_29_178
*1084 TAP_TAPCELL_ROW_29_179
*1085 TAP_TAPCELL_ROW_2_82
*1086 TAP_TAPCELL_ROW_2_83
*1087 TAP_TAPCELL_ROW_2_84
*1088 TAP_TAPCELL_ROW_2_85
*1089 TAP_TAPCELL_ROW_30_180
*1090 TAP_TAPCELL_ROW_30_181
*1091 TAP_TAPCELL_ROW_30_182
*1092 TAP_TAPCELL_ROW_30_183
*1093 TAP_TAPCELL_ROW_31_184
*1094 TAP_TAPCELL_ROW_31_185
*1095 TAP_TAPCELL_ROW_31_186
*1096 TAP_TAPCELL_ROW_32_187
*1097 TAP_TAPCELL_ROW_32_188
*1098 TAP_TAPCELL_ROW_32_189
*1099 TAP_TAPCELL_ROW_32_190
*1100 TAP_TAPCELL_ROW_33_191
*1101 TAP_TAPCELL_ROW_33_192
*1102 TAP_TAPCELL_ROW_33_193
*1103 TAP_TAPCELL_ROW_34_194
*1104 TAP_TAPCELL_ROW_34_195
*1105 TAP_TAPCELL_ROW_34_196
*1106 TAP_TAPCELL_ROW_34_197
*1107 TAP_TAPCELL_ROW_35_198
*1108 TAP_TAPCELL_ROW_35_199
*1109 TAP_TAPCELL_ROW_35_200
*1110 TAP_TAPCELL_ROW_35_201
*1111 TAP_TAPCELL_ROW_35_202
*1112 TAP_TAPCELL_ROW_35_203
*1113 TAP_TAPCELL_ROW_35_204
*1114 TAP_TAPCELL_ROW_3_86
*1115 TAP_TAPCELL_ROW_3_87
*1116 TAP_TAPCELL_ROW_3_88
*1117 TAP_TAPCELL_ROW_4_89
*1118 TAP_TAPCELL_ROW_4_90
*1119 TAP_TAPCELL_ROW_4_91
*1120 TAP_TAPCELL_ROW_4_92
*1121 TAP_TAPCELL_ROW_5_93
*1122 TAP_TAPCELL_ROW_5_94
*1123 TAP_TAPCELL_ROW_5_95
*1124 TAP_TAPCELL_ROW_6_96
*1125 TAP_TAPCELL_ROW_6_97
*1126 TAP_TAPCELL_ROW_6_98
*1127 TAP_TAPCELL_ROW_6_99
*1128 TAP_TAPCELL_ROW_7_100
*1129 TAP_TAPCELL_ROW_7_101
*1130 TAP_TAPCELL_ROW_7_102
*1131 TAP_TAPCELL_ROW_8_103
*1132 TAP_TAPCELL_ROW_8_104
*1133 TAP_TAPCELL_ROW_8_105
*1134 TAP_TAPCELL_ROW_8_106
*1135 TAP_TAPCELL_ROW_9_107
*1136 TAP_TAPCELL_ROW_9_108
*1137 TAP_TAPCELL_ROW_9_109
*1138 _180_
*1139 _181_
*1140 _182_
*1141 _183_
*1142 _184_
*1143 _185_
*1144 _186_
*1145 _187_
*1146 _188_
*1147 _189_
*1148 _190_
*1149 _191_
*1150 _192_
*1151 _193_
*1152 _194_
*1153 _195_
*1154 _196_
*1155 _197_
*1156 _198_
*1157 _199_
*1158 _200_
*1159 _201_
*1160 _202_
*1161 _203_
*1162 _204_
*1163 _205_
*1164 _206_
*1165 _207_
*1166 _208_
*1167 _209_
*1168 _210_
*1169 _211_
*1170 _212_
*1171 _213_
*1172 _214_
*1173 _215_
*1174 _216_
*1175 _217_
*1176 _218_
*1177 _219_
*1178 _220_
*1179 _221_
*1180 _222_
*1181 _223_
*1182 _224_
*1183 _225_
*1184 _226_
*1185 _227_
*1186 _228_
*1187 _229_
*1188 _230_
*1189 _231_
*1190 _232_
*1191 _233_
*1192 _234_
*1193 _235_
*1194 _236_
*1195 _237_
*1196 _238_
*1197 _239_
*1198 _240_
*1199 _241_
*1200 _242_
*1201 _243_
*1202 _244_
*1203 _245_
*1204 _246_
*1205 _247_
*1206 _248_
*1207 _249_
*1208 _250_
*1209 _251_
*1210 _252_
*1211 _253_
*1212 _254_
*1213 _255_
*1214 _256_
*1215 _257_
*1216 _258_
*1217 _259_
*1218 _260_
*1219 _261_
*1220 _262_
*1221 _263_
*1222 _264_
*1223 _265_
*1224 _266_
*1225 _267_
*1226 _268_
*1227 _269_
*1228 _270_
*1229 _271_
*1230 _272_
*1231 _273_
*1232 _274_
*1233 _275_
*1234 _276_
*1235 _277_
*1236 _278_
*1237 _279_
*1238 _280_
*1239 _281_
*1240 _282_
*1241 _283_
*1242 _284_
*1243 _285_
*1244 _286_
*1245 _287_
*1246 _288_
*1247 _289_
*1248 _290_
*1249 _291_
*1250 _292_
*1251 _293_
*1252 _294_
*1253 _295_
*1254 _296_
*1255 _297_
*1256 _298_
*1257 _299_
*1258 _300_
*1259 _301_
*1260 _302_
*1261 _303_
*1262 _304_
*1263 _305_
*1264 _306_
*1265 _307_
*1266 _308_
*1267 _309_
*1268 _310_
*1269 _311_
*1270 _312_
*1271 _313_
*1272 _314_
*1273 _315_
*1274 _316_
*1275 _317_
*1276 _318_
*1277 _319_
*1278 _320_
*1279 _321_
*1280 _322_
*1281 _323_
*1282 _324_
*1283 _325_
*1284 _326_
*1285 _327_
*1286 _328_
*1287 _329_
*1288 _330_
*1289 _331_
*1290 _332_
*1291 _333_
*1292 _334_
*1293 _335_
*1294 _336_
*1295 _337_
*1296 _338_
*1297 _339_
*1298 _340_
*1299 _341_
*1300 _342_
*1301 _343_
*1302 _344_
*1303 _345_
*1304 _346_
*1305 _347_
*1306 _348_
*1307 _349_
*1308 _350_
*1309 _351_
*1310 _352_
*1311 _353_
*1312 _354_
*1313 _355_
*1314 _356_
*1315 _357_
*1316 _358_
*1317 _359_
*1318 _360_
*1319 _361_
*1320 _362_
*1321 _363_
*1322 _364_
*1323 _365_
*1324 _366_
*1325 _367_
*1326 _368_
*1327 _369_
*1328 _370_
*1329 _371_
*1330 _372_
*1331 _373_
*1332 _374_
*1333 _375_
*1334 _376_
*1335 _377_
*1336 _378_
*1337 _379_
*1338 _380_
*1339 _381_
*1340 _382_
*1341 _383_
*1342 _384_
*1343 _385_
*1344 _386_
*1345 _387_
*1346 _388_
*1347 _389_
*1348 _390_
*1349 _391_
*1350 _392_
*1351 _393_
*1352 _394_
*1353 _395_
*1354 _396_
*1355 _397_
*1356 _398_
*1357 clkbuf_0_clk_i
*1358 clkbuf_2_0__f_clk_i
*1359 clkbuf_2_1__f_clk_i
*1360 clkbuf_2_2__f_clk_i
*1361 clkbuf_2_3__f_clk_i
*1362 clkload0
*1363 clkload1
*1364 clkload2
*1365 fanout37
*1366 fanout38
*1367 fanout39
*1368 fanout40
*1369 fanout41
*1370 fanout42
*1371 fanout43
*1372 fanout44
*1373 input1
*1374 input10
*1375 input11
*1376 input12
*1377 input13
*1378 input14
*1379 input15
*1380 input16
*1381 input17
*1382 input18
*1383 input19
*1384 input2
*1385 input20
*1386 input21
*1387 input22
*1388 input23
*1389 input3
*1390 input4
*1391 input5
*1392 input6
*1393 input7
*1394 input8
*1395 input9
*1396 output24
*1397 output25
*1398 output26
*1399 output27
*1400 output28
*1401 output29
*1402 output30
*1403 output31
*1404 output32
*1405 output33
*1406 output34
*1407 output35
*1408 output36

*PORTS
busy_o O
cfg_bits_i[0] I
cfg_bits_i[1] I
cfg_div_i[0] I
cfg_div_i[10] I
cfg_div_i[11] I
cfg_div_i[12] I
cfg_div_i[13] I
cfg_div_i[14] I
cfg_div_i[15] I
cfg_div_i[1] I
cfg_div_i[2] I
cfg_div_i[3] I
cfg_div_i[4] I
cfg_div_i[5] I
cfg_div_i[6] I
cfg_div_i[7] I
cfg_div_i[8] I
cfg_div_i[9] I
cfg_en_i I
cfg_parity_en_i I
cfg_stop_bits_i I
char_event_o O
clk_i I
err_overflow_o O
err_parity_o O
rstn_i I
rx_data_o[0] O
rx_data_o[1] O
rx_data_o[2] O
rx_data_o[3] O
rx_data_o[4] O
rx_data_o[5] O
rx_data_o[6] O
rx_data_o[7] O
rx_i I
rx_ready_i I
rx_valid_o O

*D_NET *3 0.00127669
*CONN
*P busy_o O
*I *1396:Z O *D gf180mcu_fd_sc_mcu7t5v0__dlyb_1
*CAP
1 busy_o 0.000374256
2 *1396:Z 0.000374256
3 busy_o *1385:I 0.00052818
*RES
1 *1396:Z busy_o 12.8073 
*END

*D_NET *4 0.00123275
*CONN
*P cfg_bits_i[0] I
*I *1373:I I *D gf180mcu_fd_sc_mcu7t5v0__dlyb_1
*CAP
1 cfg_bits_i[0] 0.000186766
2 *1373:I 0.000186766
3 *1373:I rx_data_o[7] 0.000312161
4 *1373:I *1384:I 0.000547059
*RES
1 cfg_bits_i[0] *1373:I 12.6273 
*END

*D_NET *5 0.00148414
*CONN
*P cfg_bits_i[1] I
*I *1384:I I *D gf180mcu_fd_sc_mcu7t5v0__dlyb_1
*CAP
1 cfg_bits_i[1] 0.000437979
2 *1384:I 0.000437979
3 *1384:I rx_data_o[7] 2.98728e-05
4 *1384:I *1303:A2 3.12455e-05
5 *1373:I *1384:I 0.000547059
*RES
1 cfg_bits_i[1] *1384:I 13.7073 
*END

*D_NET *6 0.00120025
*CONN
*P cfg_div_i[0] I
*I *1389:I I *D gf180mcu_fd_sc_mcu7t5v0__dlyb_1
*CAP
1 cfg_div_i[0] 0.000333066
2 *1389:I 0.000333066
3 *1389:I *1374:I 0.000534114
4 *1389:I *247:8 0
*RES
1 cfg_div_i[0] *1389:I 12.555 
*END

*D_NET *7 0.00183324
*CONN
*P cfg_div_i[10] I
*I *1390:I I *D gf180mcu_fd_sc_mcu7t5v0__dlyb_1
*CAP
1 cfg_div_i[10] 0.000189038
2 *1390:I 0.000189038
3 *1390:I *1382:I 0.000906501
4 *1390:I *1392:I 0.00054866
*RES
1 cfg_div_i[10] *1390:I 13.275 
*END

*D_NET *8 0.000896831
*CONN
*P cfg_div_i[11] I
*I *1391:I I *D gf180mcu_fd_sc_mcu7t5v0__dlyb_1
*CAP
1 cfg_div_i[11] 0.000272207
2 *1391:I 0.000272207
3 *1391:I *1375:I 9.75011e-05
4 *1391:I *1395:I 0.000254915
5 *1391:I *248:14 0
*RES
1 cfg_div_i[11] *1391:I 12.195 
*END

*D_NET *9 0.00151136
*CONN
*P cfg_div_i[12] I
*I *1392:I I *D gf180mcu_fd_sc_mcu7t5v0__dlyb_1
*CAP
1 cfg_div_i[12] 0.000204232
2 *1392:I 0.000204232
3 *1392:I *1394:I 0.000554237
4 *1390:I *1392:I 0.00054866
*RES
1 cfg_div_i[12] *1392:I 12.915 
*END

*D_NET *10 0.00200813
*CONN
*P cfg_div_i[13] I
*I *1393:I I *D gf180mcu_fd_sc_mcu7t5v0__dlyb_1
*CAP
1 cfg_div_i[13] 0.000596569
2 *1393:I 0.000596569
3 *1393:I *1382:I 0.000557809
4 *1393:I *225:24 4.59168e-05
5 *1393:I *229:27 0.000104278
6 *1393:I *255:14 5.54456e-05
7 *1393:I *279:12 4.82191e-05
8 *1393:I *288:10 3.31858e-06
*RES
1 cfg_div_i[13] *1393:I 15.435 
*END

*D_NET *11 0.00130252
*CONN
*P cfg_div_i[14] I
*I *1394:I I *D gf180mcu_fd_sc_mcu7t5v0__dlyb_1
*CAP
1 cfg_div_i[14] 0.00037414
2 *1394:I 0.00037414
3 *1394:I *1375:I 0
4 *1394:I *288:10 0
5 *1392:I *1394:I 0.000554237
*RES
1 cfg_div_i[14] *1394:I 12.915 
*END

*D_NET *12 0.00138661
*CONN
*P cfg_div_i[15] I
*I *1395:I I *D gf180mcu_fd_sc_mcu7t5v0__dlyb_1
*CAP
1 cfg_div_i[15] 0.000206758
2 *1395:I 0.000206758
3 *1395:I *1379:I 0.000718175
4 *1395:I *248:14 0
5 *1391:I *1395:I 0.000254915
*RES
1 cfg_div_i[15] *1395:I 12.735 
*END

*D_NET *13 0.000930293
*CONN
*P cfg_div_i[1] I
*I *1374:I I *D gf180mcu_fd_sc_mcu7t5v0__dlyb_1
*CAP
1 cfg_div_i[1] 0.00019809
2 *1374:I 0.00019809
3 *1374:I *1377:I 0
4 *1389:I *1374:I 0.000534114
*RES
1 cfg_div_i[1] *1374:I 11.925 
*END

*D_NET *14 0.000721942
*CONN
*P cfg_div_i[2] I
*I *1375:I I *D gf180mcu_fd_sc_mcu7t5v0__dlyb_1
*CAP
1 cfg_div_i[2] 0.000312221
2 *1375:I 0.000312221
3 *1391:I *1375:I 9.75011e-05
4 *1394:I *1375:I 0
*RES
1 cfg_div_i[2] *1375:I 11.925 
*END

*D_NET *15 0.00201048
*CONN
*P cfg_div_i[3] I
*I *1376:I I *D gf180mcu_fd_sc_mcu7t5v0__dlyb_1
*CAP
1 cfg_div_i[3] 0.00100524
2 *1376:I 0.00100524
*RES
1 cfg_div_i[3] *1376:I 20.925 
*END

*D_NET *16 0.00101465
*CONN
*P cfg_div_i[4] I
*I *1377:I I *D gf180mcu_fd_sc_mcu7t5v0__dlyb_1
*CAP
1 cfg_div_i[4] 0.000232997
2 *1377:I 0.000232997
3 *1377:I *1378:I 0.00054866
4 *1377:I *248:14 0
5 *1374:I *1377:I 0
*RES
1 cfg_div_i[4] *1377:I 12.195 
*END

*D_NET *17 0.00111398
*CONN
*P cfg_div_i[5] I
*I *1378:I I *D gf180mcu_fd_sc_mcu7t5v0__dlyb_1
*CAP
1 cfg_div_i[5] 0.000282661
2 *1378:I 0.000282661
3 *1378:I *248:14 0
4 *1377:I *1378:I 0.00054866
*RES
1 cfg_div_i[5] *1378:I 12.375 
*END

*D_NET *18 0.00155113
*CONN
*P cfg_div_i[6] I
*I *1379:I I *D gf180mcu_fd_sc_mcu7t5v0__dlyb_1
*CAP
1 cfg_div_i[6] 0.000416476
2 *1379:I 0.000416476
3 *1379:I *248:14 0
4 *1395:I *1379:I 0.000718175
*RES
1 cfg_div_i[6] *1379:I 13.455 
*END

*D_NET *19 0.00112369
*CONN
*P cfg_div_i[7] I
*I *1380:I I *D gf180mcu_fd_sc_mcu7t5v0__dlyb_1
*CAP
1 cfg_div_i[7] 0.000561845
2 *1380:I 0.000561845
*RES
1 cfg_div_i[7] *1380:I 12.9873 
*END

*D_NET *20 0.00185334
*CONN
*P cfg_div_i[8] I
*I *1381:I I *D gf180mcu_fd_sc_mcu7t5v0__dlyb_1
*CAP
1 cfg_div_i[8] 0.000926668
2 *1381:I 0.000926668
*RES
1 cfg_div_i[8] *1381:I 12.142 
*END

*D_NET *21 0.00208777
*CONN
*P cfg_div_i[9] I
*I *1382:I I *D gf180mcu_fd_sc_mcu7t5v0__dlyb_1
*CAP
1 cfg_div_i[9] 0.000311728
2 *1382:I 0.000311728
3 *1390:I *1382:I 0.000906501
4 *1393:I *1382:I 0.000557809
*RES
1 cfg_div_i[9] *1382:I 13.995 
*END

*D_NET *22 0.00118267
*CONN
*P cfg_en_i I
*I *1383:I I *D gf180mcu_fd_sc_mcu7t5v0__dlyb_1
*CAP
1 cfg_en_i 0.000591333
2 *1383:I 0.000591333
3 *1383:I *1372:I 0
*RES
1 cfg_en_i *1383:I 13.3473 
*END

*D_NET *23 0.00214654
*CONN
*P cfg_parity_en_i I
*I *1385:I I *D gf180mcu_fd_sc_mcu7t5v0__dlyb_1
*CAP
1 cfg_parity_en_i 0.000562275
2 *1385:I 0.000562275
3 *1385:I *1371:I 0
4 *1385:I *1396:I 0.000393153
5 *1385:I *283:41 2.1573e-06
6 *1385:I *284:10 9.85004e-05
7 busy_o *1385:I 0.00052818
*RES
1 cfg_parity_en_i *1385:I 15.1473 
*END

*D_NET *25 0.0022032
*CONN
*P char_event_o O
*I *1397:Z O *D gf180mcu_fd_sc_mcu7t5v0__dlyb_1
*CAP
1 char_event_o 0.000790831
2 *1397:Z 0.000790831
3 char_event_o err_overflow_o 0.000523048
4 char_event_o err_parity_o 0
5 char_event_o rx_valid_o 9.84908e-05
6 char_event_o *1388:I 0
*RES
1 *1397:Z char_event_o 15.4173 
*END

*D_NET *26 0.0121137
*CONN
*P clk_i I
*I *1357:I I *D gf180mcu_fd_sc_mcu7t5v0__clkbuf_16
*CAP
1 clk_i 0.00526067
2 *1357:I 0.00020014
3 *26:10 0.00546081
4 *1357:I *1366:I 3.51488e-05
5 *1357:I *276:84 0
6 *26:10 *1186:A1 0.000127736
7 *26:10 *1346:D 0.000118553
8 *26:10 *1346:CLK 0.00011873
9 *26:10 *1366:I 0.000791947
10 *26:10 *226:12 0
11 *26:10 *276:84 0
12 *26:10 *276:93 0
*RES
1 clk_i *26:10 44.955 
2 *26:10 *1357:I 5.76 
*END

*D_NET *27 0.0020208
*CONN
*P err_overflow_o O
*I *1398:Z O *D gf180mcu_fd_sc_mcu7t5v0__dlyb_1
*CAP
1 err_overflow_o 0.000320853
2 *1398:Z 0.000320853
3 err_overflow_o *1154:I 1.68605e-05
4 err_overflow_o *1216:A1 0.000101624
5 err_overflow_o *1388:I 0.000603849
6 err_overflow_o *291:8 0.000133717
7 char_event_o err_overflow_o 0.000523048
*RES
1 *1398:Z err_overflow_o 14.2473 
*END

*D_NET *28 0.00158425
*CONN
*P err_parity_o O
*I *1399:Z O *D gf180mcu_fd_sc_mcu7t5v0__dlyb_1
*CAP
1 err_parity_o 0.000449846
2 *1399:Z 0.000449846
3 err_parity_o rx_valid_o 0.000517625
4 err_parity_o *1388:I 0.000101163
5 err_parity_o *283:48 6.57682e-05
6 char_event_o err_parity_o 0
*RES
1 *1399:Z err_parity_o 14.0673 
*END

*D_NET *29 0.00185759
*CONN
*P rstn_i I
*I *1386:I I *D gf180mcu_fd_sc_mcu7t5v0__dlyb_1
*CAP
1 rstn_i 0.000928796
2 *1386:I 0.000928796
3 *1386:I *1372:I 0
4 *1386:I *256:10 0
*RES
1 rstn_i *1386:I 15.3273 
*END

*D_NET *30 0.00127376
*CONN
*P rx_data_o[0] O
*I *1400:Z O *D gf180mcu_fd_sc_mcu7t5v0__dlyb_1
*CAP
1 rx_data_o[0] 0.00061681
2 *1400:Z 0.00061681
3 rx_data_o[0] *1400:I 0
4 rx_data_o[0] *266:10 4.01448e-05
*RES
1 *1400:Z rx_data_o[0] 13.7073 
*END

*D_NET *31 0.00168095
*CONN
*P rx_data_o[1] O
*I *1401:Z O *D gf180mcu_fd_sc_mcu7t5v0__dlyb_1
*CAP
1 rx_data_o[1] 0.000833839
2 *1401:Z 0.000833839
3 rx_data_o[1] *1401:I 1.32722e-05
*RES
1 *1401:Z rx_data_o[1] 10.8273 
*END

*D_NET *32 0.00201918
*CONN
*P rx_data_o[2] O
*I *1402:Z O *D gf180mcu_fd_sc_mcu7t5v0__dlyb_1
*CAP
1 rx_data_o[2] 0.00100959
2 *1402:Z 0.00100959
*RES
1 *1402:Z rx_data_o[2] 11.9073 
*END

*D_NET *33 0.00250422
*CONN
*P rx_data_o[3] O
*I *1403:Z O *D gf180mcu_fd_sc_mcu7t5v0__dlyb_1
*CAP
1 rx_data_o[3] 0.00118971
2 *1403:Z 0.00118971
3 rx_data_o[3] rx_data_o[4] 5.32449e-05
4 rx_data_o[3] *1404:I 7.15661e-05
*RES
1 *1403:Z rx_data_o[3] 14.122 
*END

*D_NET *34 0.00200402
*CONN
*P rx_data_o[4] O
*I *1404:Z O *D gf180mcu_fd_sc_mcu7t5v0__dlyb_1
*CAP
1 rx_data_o[4] 0.000924054
2 *1404:Z 0.000924054
3 rx_data_o[4] *1404:I 0.000102664
4 rx_data_o[3] rx_data_o[4] 5.32449e-05
*RES
1 *1404:Z rx_data_o[4] 20.9073 
*END

*D_NET *35 0.00134437
*CONN
*P rx_data_o[5] O
*I *1405:Z O *D gf180mcu_fd_sc_mcu7t5v0__dlyb_1
*CAP
1 rx_data_o[5] 0.000608227
2 *1405:Z 0.000608227
3 rx_data_o[5] rx_data_o[6] 9.93219e-05
4 rx_data_o[5] *1406:I 2.8591e-05
5 rx_data_o[5] *273:10 0
*RES
1 *1405:Z rx_data_o[5] 14.0673 
*END

*D_NET *36 0.00102865
*CONN
*P rx_data_o[6] O
*I *1406:Z O *D gf180mcu_fd_sc_mcu7t5v0__dlyb_1
*CAP
1 rx_data_o[6] 0.000464665
2 *1406:Z 0.000464665
3 rx_data_o[5] rx_data_o[6] 9.93219e-05
*RES
1 *1406:Z rx_data_o[6] 12.8073 
*END

*D_NET *37 0.00175778
*CONN
*P rx_data_o[7] O
*I *1407:Z O *D gf180mcu_fd_sc_mcu7t5v0__dlyb_1
*CAP
1 rx_data_o[7] 0.000489635
2 *1407:Z 0.000489635
3 rx_data_o[7] *1303:A2 0.000436478
4 rx_data_o[7] *246:8 0
5 rx_data_o[7] *274:10 0
6 *1373:I rx_data_o[7] 0.000312161
7 *1384:I rx_data_o[7] 2.98728e-05
*RES
1 *1407:Z rx_data_o[7] 14.4273 
*END

*D_NET *38 0.00207311
*CONN
*P rx_i I
*I *1387:I I *D gf180mcu_fd_sc_mcu7t5v0__dlyb_1
*CAP
1 rx_i 0.00103656
2 *1387:I 0.00103656
*RES
1 rx_i *1387:I 21.105 
*END

*D_NET *39 0.00196117
*CONN
*P rx_ready_i I
*I *1388:I I *D gf180mcu_fd_sc_mcu7t5v0__dlyb_1
*CAP
1 rx_ready_i 0.000272228
2 *1388:I 0.000272228
3 *1388:I rx_valid_o 0.000525541
4 *1388:I *1216:A1 0.000106774
5 *1388:I *283:48 6.89752e-05
6 *1388:I *291:8 1.0415e-05
7 char_event_o *1388:I 0
8 err_overflow_o *1388:I 0.000603849
9 err_parity_o *1388:I 0.000101163
*RES
1 rx_ready_i *1388:I 14.2473 
*END

*D_NET *40 0.00126141
*CONN
*P rx_valid_o O
*I *1408:Z O *D gf180mcu_fd_sc_mcu7t5v0__dlyb_1
*CAP
1 rx_valid_o 5.98763e-05
2 *1408:Z 5.98763e-05
3 char_event_o rx_valid_o 9.84908e-05
4 err_parity_o rx_valid_o 0.000517625
5 *1388:I rx_valid_o 0.000525541
*RES
1 *1408:Z rx_valid_o 12.0873 
*END

*D_NET *41 0.0087768
*CONN
*I *1167:A1 I *D gf180mcu_fd_sc_mcu7t5v0__nand2_1
*I *1287:A1 I *D gf180mcu_fd_sc_mcu7t5v0__oai211_1
*I *1159:A2 I *D gf180mcu_fd_sc_mcu7t5v0__nor2_1
*I *1318:A2 I *D gf180mcu_fd_sc_mcu7t5v0__nand4_1
*I *1276:A2 I *D gf180mcu_fd_sc_mcu7t5v0__nor3_1
*I *1322:Q O *D gf180mcu_fd_sc_mcu7t5v0__dffrnq_1
*CAP
1 *1167:A1 0.000103562
2 *1287:A1 0
3 *1159:A2 2.4349e-05
4 *1318:A2 0.000163394
5 *1276:A2 4.51186e-05
6 *1322:Q 0.00021552
7 *41:55 0.000402979
8 *41:16 0.000435541
9 *41:12 0.000519761
10 *41:8 0.000783321
11 *1159:A2 *1209:A1 7.55765e-06
12 *1159:A2 *194:19 0
13 *1159:A2 *197:16 6.88878e-05
14 *1167:A1 *1167:A2 7.55765e-06
15 *1167:A1 *1287:B 9.88095e-05
16 *1167:A1 *1369:I 0.000101415
17 *1167:A1 *1396:I 0.000208378
18 *1167:A1 *42:25 0.000296753
19 *1276:A2 *43:22 3.55118e-05
20 *1276:A2 *43:29 0.00015547
21 *1276:A2 *83:15 2.17608e-05
22 *1318:A2 *1276:A1 0.000109332
23 *1318:A2 *1318:A1 4.11554e-05
24 *1318:A2 *42:42 0.00015133
25 *1318:A2 *83:15 0.000216305
26 *1318:A2 *83:26 1.61174e-05
27 *1318:A2 *240:66 1.0415e-05
28 *41:8 *1284:A2 0.000229402
29 *41:8 *1369:I 9.47536e-06
30 *41:8 *110:10 0.000664135
31 *41:12 *1280:A2 0
32 *41:12 *194:19 0
33 *41:12 *197:16 0.00111457
34 *41:16 *1209:A1 0.000572976
35 *41:16 *42:42 3.90419e-05
36 *41:16 *42:44 0.000102187
37 *41:16 *194:10 2.11238e-05
38 *41:55 *1369:I 0.000101425
39 *41:55 *1396:I 0.000244819
40 *41:55 *43:14 9.34521e-05
41 *41:55 *43:22 0.000229812
42 *41:55 *110:10 0.000919223
43 *41:55 *194:10 0
44 *41:55 *262:14 0.000194859
*RES
1 *1322:Q *41:8 11.43 
2 *41:8 *41:12 7.47 
3 *41:12 *41:16 6.93 
4 *41:16 *1276:A2 9.45 
5 *41:16 *1318:A2 10.89 
6 *41:12 *1159:A2 4.77 
7 *41:8 *41:55 13.41 
8 *41:55 *1287:A1 9 
9 *41:55 *1167:A1 10.8 
*END

*D_NET *42 0.0167821
*CONN
*I *1268:A1 I *D gf180mcu_fd_sc_mcu7t5v0__nand2_1
*I *1159:A1 I *D gf180mcu_fd_sc_mcu7t5v0__nor2_1
*I *1284:A1 I *D gf180mcu_fd_sc_mcu7t5v0__oai21_1
*I *1285:I0 I *D gf180mcu_fd_sc_mcu7t5v0__mux2_2
*I *1168:A1 I *D gf180mcu_fd_sc_mcu7t5v0__oai21_1
*I *1138:I I *D gf180mcu_fd_sc_mcu7t5v0__clkinv_1
*I *1287:C I *D gf180mcu_fd_sc_mcu7t5v0__oai211_1
*I *1323:Q O *D gf180mcu_fd_sc_mcu7t5v0__dffrnq_1
*CAP
1 *1268:A1 0.000494906
2 *1159:A1 1.95758e-05
3 *1284:A1 0
4 *1285:I0 0.000426268
5 *1168:A1 0.000515458
6 *1138:I 2.58159e-05
7 *1287:C 0
8 *1323:Q 0.00070852
9 *42:61 0.000829029
10 *42:44 0.00127665
11 *42:42 0.000663053
12 *42:38 0.000894477
13 *42:25 0.000551306
14 *42:14 0.00111949
15 *1138:I *1318:A1 0.000136684
16 *1138:I *83:15 1.84368e-05
17 *1159:A1 *1209:A1 9.85004e-05
18 *1159:A1 *197:16 1.56862e-05
19 *1168:A1 *110:34 8.45603e-05
20 *1168:A1 *283:56 0.000568062
21 *1168:A1 *283:64 2.14748e-05
22 *1268:A1 *1166:A3 0.000183905
23 *1268:A1 *1166:A4 0.000425761
24 *1268:A1 *1269:A3 0.000106536
25 *1268:A1 *1270:B 8.53098e-05
26 *1268:A1 *1318:A1 2.08301e-05
27 *1268:A1 *240:58 4.83522e-05
28 *1268:A1 *240:66 0.000264627
29 *1268:A1 *244:78 0.000739333
30 *1285:I0 *1281:A1 1.86887e-06
31 *1285:I0 *1283:A2 0.000471679
32 *1285:I0 *1284:A2 1.61174e-05
33 *1285:I0 *1284:B 0.000226823
34 *1285:I0 *1285:S 0.000129056
35 *1285:I0 *1369:I 3.88059e-05
36 *1285:I0 *197:24 2.31089e-05
37 *1285:I0 *197:39 8.26533e-06
38 *42:14 *1289:A2 9.04462e-05
39 *42:14 *1289:B 9.97132e-05
40 *42:14 *1323:RN 0
41 *42:14 *43:14 0.000423933
42 *42:14 *197:39 0.000101822
43 *42:14 *244:80 9.90362e-06
44 *42:14 *258:8 0.00052094
45 *42:25 *1167:A2 2.93836e-05
46 *42:25 *1287:B 1.68802e-05
47 *42:25 *43:14 3.92172e-06
48 *42:25 *83:15 0.000163003
49 *42:25 *110:10 9.85004e-05
50 *42:25 *244:78 0.000208349
51 *42:25 *244:80 7.43751e-05
52 *42:38 *1318:A1 0.000128238
53 *42:38 *244:78 0.000119182
54 *42:42 *1209:A1 0.000583544
55 *42:42 *1212:A1 9.48455e-05
56 *42:42 *1212:A2 0.000200669
57 *42:42 *1276:A1 1.07281e-05
58 *42:42 *1318:A4 0.000380305
59 *42:61 *1282:B 2.93836e-05
60 *42:61 *1284:A2 0.000157911
61 *42:61 *1322:RN 0
62 *42:61 *110:25 0.00104782
63 *42:61 *110:34 0.000258909
64 *42:61 *197:24 8.17346e-05
65 *42:61 *283:64 0
66 *1167:A1 *42:25 0.000296753
67 *1318:A2 *42:42 0.00015133
68 *41:16 *42:42 3.90419e-05
69 *41:16 *42:44 0.000102187
*RES
1 *1323:Q *42:14 19.71 
2 *42:14 *1287:C 4.5 
3 *42:14 *42:25 4.59 
4 *42:25 *1138:I 5.04 
5 *42:25 *42:38 1.26 
6 *42:38 *42:42 8.19 
7 *42:42 *42:44 2.43 
8 *42:44 *1168:A1 13.95 
9 *42:44 *42:61 9.09 
10 *42:61 *1285:I0 17.37 
11 *42:61 *1284:A1 4.5 
12 *42:42 *1159:A1 9.27 
13 *42:38 *1268:A1 10.8 
*END

*D_NET *43 0.011533
*CONN
*I *1288:A1 I *D gf180mcu_fd_sc_mcu7t5v0__oai21_1
*I *1139:I I *D gf180mcu_fd_sc_mcu7t5v0__clkinv_1
*I *1212:A1 I *D gf180mcu_fd_sc_mcu7t5v0__nand3_1
*I *1209:A1 I *D gf180mcu_fd_sc_mcu7t5v0__xor2_1
*I *1276:A3 I *D gf180mcu_fd_sc_mcu7t5v0__nor3_1
*I *1324:Q O *D gf180mcu_fd_sc_mcu7t5v0__dffrnq_1
*CAP
1 *1288:A1 0.000101348
2 *1139:I 2.23917e-06
3 *1212:A1 0.000317772
4 *1209:A1 0.000274146
5 *1276:A3 0
6 *1324:Q 0.000944384
7 *43:29 0.000635341
8 *43:22 0.000346366
9 *43:14 0.000821925
10 *43:8 0.00156248
11 *1139:I *1287:B 4.83522e-05
12 *1209:A1 *1209:A2 0.000210501
13 *1209:A1 *194:19 0.000207151
14 *1209:A1 *197:16 3.37946e-05
15 *1212:A1 *1212:A2 0.000570715
16 *1212:A1 *1318:A4 0.000372597
17 *1212:A1 *1319:A3 0.000307432
18 *1212:A1 *83:15 2.13008e-05
19 *1212:A1 *154:10 6.2083e-06
20 *1212:A1 *262:14 0.000199673
21 *1288:A1 *1288:A2 0.000352278
22 *1288:A1 *1323:CLK 1.47224e-05
23 *43:8 *1324:D 0.000299779
24 *43:8 *283:10 0.000195026
25 *43:8 *283:34 6.67474e-05
26 *43:14 *1280:A1 0
27 *43:14 *1287:B 0.0001304
28 *43:14 *1288:A2 2.14748e-05
29 *43:14 *1289:A2 5.4236e-06
30 *43:14 *1289:B 0.000167441
31 *43:14 *197:39 0.000144454
32 *43:14 *283:10 2.49306e-05
33 *43:22 *1287:A2 2.65444e-06
34 *43:22 *1287:B 3.08083e-05
35 *43:22 *83:15 0.000239162
36 *43:22 *262:14 0.000372891
37 *43:29 *83:15 3.15085e-06
38 *43:29 *262:14 0.000178382
39 *1159:A1 *1209:A1 9.85004e-05
40 *1159:A2 *1209:A1 7.55765e-06
41 *1276:A2 *43:22 3.55118e-05
42 *1276:A2 *43:29 0.00015547
43 *41:16 *1209:A1 0.000572976
44 *41:55 *43:14 9.34521e-05
45 *41:55 *43:22 0.000229812
46 *42:14 *43:14 0.000423933
47 *42:25 *43:14 3.92172e-06
48 *42:42 *1209:A1 0.000583544
49 *42:42 *1212:A1 9.48455e-05
*RES
1 *1324:Q *43:8 16.11 
2 *43:8 *43:14 9.36 
3 *43:14 *43:22 3.96 
4 *43:22 *1276:A3 4.5 
5 *43:22 *43:29 0.63 
6 *43:29 *1209:A1 18 
7 *43:29 *1212:A1 17.46 
8 *43:14 *1139:I 4.77 
9 *43:8 *1288:A1 9.99 
*END

*D_NET *44 0.000547096
*CONN
*I *1337:D I *D gf180mcu_fd_sc_mcu7t5v0__dffrnq_1
*I *1218:ZN O *D gf180mcu_fd_sc_mcu7t5v0__nor2_1
*CAP
1 *1337:D 0.000220359
2 *1218:ZN 0.000220359
3 *1337:D *1220:A1 1.07374e-05
4 *1337:D *1338:CLK 8.96665e-05
5 *1337:D *242:65 5.97457e-06
*RES
1 *1218:ZN *1337:D 10.8 
*END

*D_NET *45 0.00182403
*CONN
*I *1347:D I *D gf180mcu_fd_sc_mcu7t5v0__dffrnq_1
*I *1248:ZN O *D gf180mcu_fd_sc_mcu7t5v0__nor3_1
*CAP
1 *1347:D 0.000438833
2 *1248:ZN 0.000438833
3 *1347:D *1241:A1 0.000662598
4 *1347:D *1248:A1 0.000111961
5 *1347:D *1345:CLK 2.03826e-05
6 *1347:D *1348:RN 0
7 *1347:D *254:12 0.000151427
8 *1347:D *281:113 0
*RES
1 *1248:ZN *1347:D 23.22 
*END

*D_NET *46 0.000901464
*CONN
*I *1348:D I *D gf180mcu_fd_sc_mcu7t5v0__dffrnq_1
*I *1252:ZN O *D gf180mcu_fd_sc_mcu7t5v0__nor3_1
*CAP
1 *1348:D 0.000377199
2 *1252:ZN 0.000377199
3 *1348:D *1348:CLK 3.10003e-05
4 *1348:D *227:6 1.26644e-05
5 *1348:D *277:8 0.000103402
*RES
1 *1252:ZN *1348:D 11.88 
*END

*D_NET *47 0.000699541
*CONN
*I *1349:D I *D gf180mcu_fd_sc_mcu7t5v0__dffrnq_1
*I *1254:ZN O *D gf180mcu_fd_sc_mcu7t5v0__nor2_1
*CAP
1 *1349:D 0.000155946
2 *1254:ZN 0.000155946
3 *1349:D *1254:A1 0.000365454
4 *1349:D *1254:A2 2.14748e-05
5 *1349:D *243:112 7.191e-07
*RES
1 *1254:ZN *1349:D 10.53 
*END

*D_NET *48 0.000825447
*CONN
*I *1350:D I *D gf180mcu_fd_sc_mcu7t5v0__dffrnq_1
*I *1258:ZN O *D gf180mcu_fd_sc_mcu7t5v0__nor3_1
*CAP
1 *1350:D 0.000340584
2 *1258:ZN 0.000340584
3 *1350:D *1253:A1 0
4 *1350:D *1258:A2 4.78178e-05
5 *1350:D *227:25 0
6 *1350:D *227:47 0
7 *1350:D *243:112 9.64609e-05
*RES
1 *1258:ZN *1350:D 11.25 
*END

*D_NET *49 0.00043888
*CONN
*I *1351:D I *D gf180mcu_fd_sc_mcu7t5v0__dffrnq_1
*I *1261:ZN O *D gf180mcu_fd_sc_mcu7t5v0__nor3_1
*CAP
1 *1351:D 0.000182777
2 *1261:ZN 0.000182777
3 *1351:D *1261:A3 6.57682e-05
4 *1351:D *1351:CLK 7.55765e-06
*RES
1 *1261:ZN *1351:D 10.44 
*END

*D_NET *50 0.000370703
*CONN
*I *1352:D I *D gf180mcu_fd_sc_mcu7t5v0__dffrnq_1
*I *1263:ZN O *D gf180mcu_fd_sc_mcu7t5v0__aoi211_1
*CAP
1 *1352:D 7.84569e-05
2 *1263:ZN 7.84569e-05
3 *1352:D *1352:CLK 5.3819e-05
4 *1352:D *230:12 0.00015997
*RES
1 *1263:ZN *1352:D 9.99 
*END

*D_NET *51 0.000752809
*CONN
*I *1338:D I *D gf180mcu_fd_sc_mcu7t5v0__dffrnq_1
*I *1220:ZN O *D gf180mcu_fd_sc_mcu7t5v0__nor2_1
*CAP
1 *1338:D 0.00018966
2 *1220:ZN 0.00018966
3 *1338:D *1164:A2 0
4 *1338:D *1220:A1 0.00037349
5 *1338:D *1338:CLK 0
*RES
1 *1220:ZN *1338:D 10.8 
*END

*D_NET *52 0.00146066
*CONN
*I *1339:D I *D gf180mcu_fd_sc_mcu7t5v0__dffrnq_1
*I *1223:ZN O *D gf180mcu_fd_sc_mcu7t5v0__nor3_1
*CAP
1 *1339:D 0.000730332
2 *1223:ZN 0.000730332
3 *1339:D *224:12 0
*RES
1 *1223:ZN *1339:D 13.41 
*END

*D_NET *53 0.0010722
*CONN
*I *1340:D I *D gf180mcu_fd_sc_mcu7t5v0__dffrnq_1
*I *1226:ZN O *D gf180mcu_fd_sc_mcu7t5v0__nor3_1
*CAP
1 *1340:D 0.000266852
2 *1226:ZN 0.000266852
3 *1340:D *1341:CLK 4.39622e-05
4 *1340:D *232:10 0.000361597
5 *1340:D *281:52 0.000132939
*RES
1 *1226:ZN *1340:D 11.7 
*END

*D_NET *54 0.000554413
*CONN
*I *1341:D I *D gf180mcu_fd_sc_mcu7t5v0__dffrnq_1
*I *1228:ZN O *D gf180mcu_fd_sc_mcu7t5v0__nor2_1
*CAP
1 *1341:D 9.51817e-05
2 *1228:ZN 9.51817e-05
3 *1341:D *1228:A1 0.00036405
*RES
1 *1228:ZN *1341:D 9.99 
*END

*D_NET *55 0.00163984
*CONN
*I *1342:D I *D gf180mcu_fd_sc_mcu7t5v0__dffrnq_1
*I *1232:ZN O *D gf180mcu_fd_sc_mcu7t5v0__nor3_1
*CAP
1 *1342:D 0.000512326
2 *1232:ZN 0.000512326
3 *1342:D *1172:A2 0
4 *1342:D *233:6 0
5 *1342:D *281:16 0.000615188
*RES
1 *1232:ZN *1342:D 22.5 
*END

*D_NET *56 0.000554714
*CONN
*I *1343:D I *D gf180mcu_fd_sc_mcu7t5v0__dffrnq_1
*I *1235:ZN O *D gf180mcu_fd_sc_mcu7t5v0__nor2_1
*CAP
1 *1343:D 5.55295e-05
2 *1235:ZN 5.55295e-05
3 *1343:D *1235:A2 0.00037349
4 *1343:D *1343:CLK 7.01651e-05
*RES
1 *1235:ZN *1343:D 9.99 
*END

*D_NET *57 0.00192923
*CONN
*I *1344:D I *D gf180mcu_fd_sc_mcu7t5v0__dffrnq_1
*I *1238:Z O *D gf180mcu_fd_sc_mcu7t5v0__and4_1
*CAP
1 *1344:D 0.000349072
2 *1238:Z 0.000349072
3 *1344:D *1342:CLK 5.97457e-06
4 *1344:D *1365:I 0.000519893
5 *1344:D *237:14 0.000121621
6 *1344:D *242:26 0.000566284
7 *1344:D *281:102 1.73182e-05
*RES
1 *1238:Z *1344:D 21.69 
*END

*D_NET *58 0.0010221
*CONN
*I *1345:D I *D gf180mcu_fd_sc_mcu7t5v0__dffrnq_1
*I *1241:ZN O *D gf180mcu_fd_sc_mcu7t5v0__nor2_1
*CAP
1 *1345:D 0.000197011
2 *1241:ZN 0.000197011
3 *1345:D *1241:A2 0.000294431
4 *1345:D *1345:CLK 0.000129286
5 *1345:D *238:12 0.000142874
6 *1345:D *254:12 6.14858e-05
*RES
1 *1241:ZN *1345:D 11.25 
*END

*D_NET *59 0.000798426
*CONN
*I *1346:D I *D gf180mcu_fd_sc_mcu7t5v0__dffrnq_1
*I *1244:ZN O *D gf180mcu_fd_sc_mcu7t5v0__nor3_1
*CAP
1 *1346:D 0.00027995
2 *1244:ZN 0.00027995
3 *1346:D *1346:CLK 1.07374e-05
4 *1346:D *276:84 0.000109235
5 *26:10 *1346:D 0.000118553
*RES
1 *1244:ZN *1346:D 11.07 
*END

*D_NET *60 0.000387123
*CONN
*I *1353:D I *D gf180mcu_fd_sc_mcu7t5v0__dffrnq_1
*I *1211:ZN O *D gf180mcu_fd_sc_mcu7t5v0__aoi21_1
*CAP
1 *1353:D 0.000132883
2 *1211:ZN 0.000132883
3 *1353:D *244:35 0.000121356
*RES
1 *1211:ZN *1353:D 10.17 
*END

*D_NET *61 0.000838874
*CONN
*I *1354:D I *D gf180mcu_fd_sc_mcu7t5v0__dffsnq_1
*I *1264:Z O *D gf180mcu_fd_sc_mcu7t5v0__or2_1
*CAP
1 *1354:D 0.000396824
2 *1264:Z 0.000396824
3 *1354:D *1264:A1 4.52264e-05
*RES
1 *1264:Z *1354:D 11.7 
*END

*D_NET *62 0.00240325
*CONN
*I *1355:D I *D gf180mcu_fd_sc_mcu7t5v0__dffsnq_1
*I *1265:Z O *D gf180mcu_fd_sc_mcu7t5v0__or2_1
*CAP
1 *1355:D 0.000969677
2 *1265:Z 0.000969677
3 *1355:D *1283:A1 5.3819e-05
4 *1355:D *1322:D 0.000125562
5 *1355:D *1322:CLK 9.08334e-05
6 *1355:D *1369:I 4.15505e-05
7 *1355:D *237:10 0.000151417
8 *1355:D *244:35 7.191e-07
*RES
1 *1265:Z *1355:D 16.29 
*END

*D_NET *63 0.000772672
*CONN
*I *1356:D I *D gf180mcu_fd_sc_mcu7t5v0__dffsnq_1
*I *1266:ZN O *D gf180mcu_fd_sc_mcu7t5v0__nand2_1
*CAP
1 *1356:D 2.08816e-05
2 *1266:ZN 2.08816e-05
3 *1356:D *1269:A2 0.000365454
4 *1356:D *1319:A3 0.000365454
*RES
1 *1266:ZN *1356:D 9.99 
*END

*D_NET *64 0.0039105
*CONN
*I *1314:B I *D gf180mcu_fd_sc_mcu7t5v0__aoi21_1
*I *1273:A2 I *D gf180mcu_fd_sc_mcu7t5v0__xnor2_1
*I *1312:A2 I *D gf180mcu_fd_sc_mcu7t5v0__nand2_1
*I *1316:A2 I *D gf180mcu_fd_sc_mcu7t5v0__nand4_1
*I *1334:Q O *D gf180mcu_fd_sc_mcu7t5v0__dffrnq_1
*CAP
1 *1314:B 0
2 *1273:A2 8.57968e-05
3 *1312:A2 0
4 *1316:A2 0.000108059
5 *1334:Q 6.96111e-05
6 *64:23 0.000275659
7 *64:12 0.000480324
8 *64:6 0.000252014
9 *1273:A2 *1274:A2 0.000364412
10 *1273:A2 *193:10 1.36885e-05
11 *1273:A2 *292:41 0.000109323
12 *1316:A2 *1314:A1 3.12451e-05
13 *1316:A2 *1314:A2 3.01487e-05
14 *1316:A2 *1316:A1 0.000119192
15 *1316:A2 *1316:A4 4.89065e-05
16 *64:6 *1314:A1 1.07374e-05
17 *64:6 *1316:A1 6.76694e-05
18 *64:6 *241:77 6.76694e-05
19 *64:12 *1314:A1 2.31089e-05
20 *64:12 *241:77 3.22122e-05
21 *64:12 *282:31 1.47172e-05
22 *64:12 *292:25 0.000166798
23 *64:23 *1314:A2 0.000312562
24 *64:23 *292:25 0.000573266
25 *64:23 *292:41 0.000653381
*RES
1 *1334:Q *64:6 5.31 
2 *64:6 *64:12 5.76 
3 *64:12 *1316:A2 9.99 
4 *64:12 *64:23 3.15 
5 *64:23 *1312:A2 9 
6 *64:23 *1273:A2 10.35 
7 *64:6 *1314:B 4.5 
*END

*D_NET *65 0.00184086
*CONN
*I *1275:A1 I *D gf180mcu_fd_sc_mcu7t5v0__nand3_1
*I *1156:I I *D gf180mcu_fd_sc_mcu7t5v0__clkinv_1
*I *1335:Q O *D gf180mcu_fd_sc_mcu7t5v0__dffrnq_1
*CAP
1 *1275:A1 4.50527e-05
2 *1156:I 0.000126462
3 *1335:Q 0.000558644
4 *65:12 0.000730159
5 *1275:A1 *193:10 5.36871e-05
6 *1275:A1 *282:59 0
7 *65:12 *1313:A2 0
8 *65:12 *193:10 1.07374e-05
9 *65:12 *219:8 0
10 *65:12 *282:59 0.000316121
*RES
1 *1335:Q *65:12 17.82 
2 *65:12 *1156:I 5.49 
3 *65:12 *1275:A1 4.95 
*END

*D_NET *66 0.000774979
*CONN
*I *1321:D I *D gf180mcu_fd_sc_mcu7t5v0__dffrnq_1
*I *1271:ZN O *D gf180mcu_fd_sc_mcu7t5v0__clkinv_1
*CAP
1 *1321:D 0.000312216
2 *1271:ZN 0.000312216
3 *1321:D *1266:A2 2.03826e-05
4 *1321:D *1369:I 0.000130165
5 *1321:D *284:31 0
*RES
1 *1271:ZN *1321:D 20.34 
*END

*D_NET *67 0.000737361
*CONN
*I *1322:D I *D gf180mcu_fd_sc_mcu7t5v0__dffrnq_1
*I *1283:ZN O *D gf180mcu_fd_sc_mcu7t5v0__nor2_1
*CAP
1 *1322:D 0.000288144
2 *1283:ZN 0.000288144
3 *1322:D *1322:CLK 3.55118e-05
4 *1355:D *1322:D 0.000125562
*RES
1 *1283:ZN *1322:D 11.25 
*END

*D_NET *68 0.00036554
*CONN
*I *1323:D I *D gf180mcu_fd_sc_mcu7t5v0__dffrnq_1
*I *1286:Z O *D gf180mcu_fd_sc_mcu7t5v0__and2_1
*CAP
1 *1323:D 0.00018277
2 *1286:Z 0.00018277
*RES
1 *1286:Z *1323:D 9.99 
*END

*D_NET *69 0.000690679
*CONN
*I *1324:D I *D gf180mcu_fd_sc_mcu7t5v0__dffrnq_1
*I *1289:ZN O *D gf180mcu_fd_sc_mcu7t5v0__aoi21_1
*CAP
1 *1324:D 0.00019545
2 *1289:ZN 0.00019545
3 *43:8 *1324:D 0.000299779
*RES
1 *1289:ZN *1324:D 19.89 
*END

*D_NET *70 0.00128545
*CONN
*I *1325:D I *D gf180mcu_fd_sc_mcu7t5v0__dffsnq_1
*I *1291:Z O *D gf180mcu_fd_sc_mcu7t5v0__mux2_2
*CAP
1 *1325:D 0.000345462
2 *1291:Z 0.000345462
3 *1325:D *1325:SETN 0.000520343
4 *1325:D *266:10 7.41861e-05
*RES
1 *1291:Z *1325:D 21.78 
*END

*D_NET *71 0.000607429
*CONN
*I *1326:D I *D gf180mcu_fd_sc_mcu7t5v0__dffsnq_1
*I *1292:Z O *D gf180mcu_fd_sc_mcu7t5v0__mux2_2
*CAP
1 *1326:D 6.05342e-05
2 *1292:Z 6.05342e-05
3 *1326:D *245:28 0.000365445
4 *1326:D *245:39 3.01487e-05
5 *1326:D *269:8 9.07674e-05
*RES
1 *1292:Z *1326:D 9.99 
*END

*D_NET *72 0.00133181
*CONN
*I *1327:D I *D gf180mcu_fd_sc_mcu7t5v0__dffsnq_1
*I *1293:Z O *D gf180mcu_fd_sc_mcu7t5v0__mux2_2
*CAP
1 *1327:D 9.40979e-05
2 *1293:Z 9.40979e-05
3 *1327:D *270:21 2.08301e-05
4 *1327:D *271:19 0.000348335
5 *1327:D *282:81 0.000774446
*RES
1 *1293:Z *1327:D 11.25 
*END

*D_NET *73 0.00145719
*CONN
*I *1328:D I *D gf180mcu_fd_sc_mcu7t5v0__dffsnq_1
*I *1294:Z O *D gf180mcu_fd_sc_mcu7t5v0__mux2_2
*CAP
1 *1328:D 0.000698787
2 *1294:Z 0.000698787
3 *1328:D *1328:SETN 5.9617e-05
4 *1328:D *245:47 0
5 *1328:D *271:19 0
*RES
1 *1294:Z *1328:D 23.04 
*END

*D_NET *74 0.000935718
*CONN
*I *1329:D I *D gf180mcu_fd_sc_mcu7t5v0__dffsnq_1
*I *1297:Z O *D gf180mcu_fd_sc_mcu7t5v0__mux2_2
*CAP
1 *1329:D 0.000467859
2 *1297:Z 0.000467859
3 *1329:D *284:67 0
*RES
1 *1297:Z *1329:D 21.42 
*END

*D_NET *75 0.00185893
*CONN
*I *1330:D I *D gf180mcu_fd_sc_mcu7t5v0__dffsnq_1
*I *1302:ZN O *D gf180mcu_fd_sc_mcu7t5v0__oai21_1
*CAP
1 *1330:D 0.000183869
2 *1302:ZN 0.000183869
3 *1330:D *1302:A1 0.000436478
4 *1330:D *1302:A2 0
5 *1330:D *278:91 0.00105472
*RES
1 *1302:ZN *1330:D 12.06 
*END

*D_NET *76 0.00082193
*CONN
*I *1331:D I *D gf180mcu_fd_sc_mcu7t5v0__dffsnq_1
*I *1306:ZN O *D gf180mcu_fd_sc_mcu7t5v0__oai21_1
*CAP
1 *1331:D 0.000282524
2 *1306:ZN 0.000282524
3 *1331:D *1300:A2 0.000256882
4 *1331:D *1300:B 0
5 *1331:D *280:34 0
6 *1331:D *284:67 0
*RES
1 *1306:ZN *1331:D 20.52 
*END

*D_NET *77 0.000899965
*CONN
*I *1332:D I *D gf180mcu_fd_sc_mcu7t5v0__dffsnq_1
*I *1309:ZN O *D gf180mcu_fd_sc_mcu7t5v0__oai21_1
*CAP
1 *1332:D 0.000294335
2 *1309:ZN 0.000294335
3 *1332:D *1309:A2 0.000102171
4 *1332:D *278:31 1.86887e-06
5 *1332:D *278:70 0.000207255
*RES
1 *1309:ZN *1332:D 11.88 
*END

*D_NET *78 0.00115928
*CONN
*I *1333:D I *D gf180mcu_fd_sc_mcu7t5v0__dffrnq_1
*I *1311:Z O *D gf180mcu_fd_sc_mcu7t5v0__mux2_2
*CAP
1 *1333:D 0.000463883
2 *1311:Z 0.000463883
3 *1333:D *1335:CLK 9.07783e-05
4 *1333:D *1353:CLK 7.01651e-05
5 *1333:D *243:26 7.55765e-06
6 *1333:D *253:12 6.30125e-05
*RES
1 *1311:Z *1333:D 21.6 
*END

*D_NET *79 0.00227723
*CONN
*I *1334:D I *D gf180mcu_fd_sc_mcu7t5v0__dffrnq_1
*I *1315:ZN O *D gf180mcu_fd_sc_mcu7t5v0__nor2_1
*CAP
1 *1334:D 0.000539686
2 *1315:ZN 0.000539686
3 *1334:D *1345:RN 0
4 *1334:D *243:26 0.000895621
5 *1334:D *281:102 0.000302236
6 *1334:D *282:31 0
*RES
1 *1315:ZN *1334:D 23.4 
*END

*D_NET *80 0.000569229
*CONN
*I *1335:D I *D gf180mcu_fd_sc_mcu7t5v0__dffrnq_1
*I *1317:ZN O *D gf180mcu_fd_sc_mcu7t5v0__oai21_1
*CAP
1 *1335:D 0.000284615
2 *1317:ZN 0.000284615
3 *1335:D *1335:CLK 0
*RES
1 *1317:ZN *1335:D 10.98 
*END

*D_NET *81 0.000765111
*CONN
*I *1336:D I *D gf180mcu_fd_sc_mcu7t5v0__dffrnq_1
*I *1320:ZN O *D gf180mcu_fd_sc_mcu7t5v0__oai21_1
*CAP
1 *1336:D 0.000179583
2 *1320:ZN 0.000179583
3 *1336:D *1320:A2 0.000356005
4 *1336:D *1320:B 4.99408e-05
*RES
1 *1320:ZN *1336:D 10.62 
*END

*D_NET *82 0.00104793
*CONN
*I *1318:A1 I *D gf180mcu_fd_sc_mcu7t5v0__nand4_1
*I *1276:A1 I *D gf180mcu_fd_sc_mcu7t5v0__nor3_1
*I *1138:ZN O *D gf180mcu_fd_sc_mcu7t5v0__clkinv_1
*CAP
1 *1318:A1 0.000181755
2 *1276:A1 8.56178e-05
3 *1138:ZN 0
4 *82:4 0.000267373
5 *1318:A1 *83:15 3.60703e-05
6 *1318:A1 *240:66 3.01487e-05
7 *1138:I *1318:A1 0.000136684
8 *1268:A1 *1318:A1 2.08301e-05
9 *1318:A2 *1276:A1 0.000109332
10 *1318:A2 *1318:A1 4.11554e-05
11 *42:38 *1318:A1 0.000128238
12 *42:42 *1276:A1 1.07281e-05
*RES
1 *1138:ZN *82:4 4.5 
2 *82:4 *1276:A1 14.31 
3 *82:4 *1318:A1 6.03 
*END

*D_NET *83 0.00421812
*CONN
*I *1167:A2 I *D gf180mcu_fd_sc_mcu7t5v0__nand2_1
*I *1160:A1 I *D gf180mcu_fd_sc_mcu7t5v0__nand2_1
*I *1166:A1 I *D gf180mcu_fd_sc_mcu7t5v0__nand4_1
*I *1318:A3 I *D gf180mcu_fd_sc_mcu7t5v0__nand4_1
*I *1287:B I *D gf180mcu_fd_sc_mcu7t5v0__oai211_1
*I *1139:ZN O *D gf180mcu_fd_sc_mcu7t5v0__clkinv_1
*CAP
1 *1167:A2 6.6804e-05
2 *1160:A1 0
3 *1166:A1 0.00013234
4 *1318:A3 0
5 *1287:B 0.000131891
6 *1139:ZN 3.44897e-05
7 *83:26 0.000338564
8 *83:15 0.000580207
9 *83:6 0.000607168
10 *1166:A1 *1278:A1 3.36658e-05
11 *1166:A1 *240:66 5.70314e-05
12 *1167:A2 *110:10 9.85004e-05
13 *83:15 *240:66 1.70328e-05
14 *83:15 *262:14 5.30888e-06
15 *83:26 *1278:A1 0
16 *83:26 *240:66 0.000421368
17 *83:26 *262:8 0.000596255
18 *83:26 *262:14 0
19 *1138:I *83:15 1.84368e-05
20 *1139:I *1287:B 4.83522e-05
21 *1167:A1 *1167:A2 7.55765e-06
22 *1167:A1 *1287:B 9.88095e-05
23 *1212:A1 *83:15 2.13008e-05
24 *1276:A2 *83:15 2.17608e-05
25 *1318:A1 *83:15 3.60703e-05
26 *1318:A2 *83:15 0.000216305
27 *1318:A2 *83:26 1.61174e-05
28 *42:25 *1167:A2 2.93836e-05
29 *42:25 *1287:B 1.68802e-05
30 *42:25 *83:15 0.000163003
31 *43:14 *1287:B 0.0001304
32 *43:22 *1287:B 3.08083e-05
33 *43:22 *83:15 0.000239162
34 *43:29 *83:15 3.15085e-06
*RES
1 *1139:ZN *83:6 4.77 
2 *83:6 *1287:B 6.03 
3 *83:6 *83:15 3.87 
4 *83:15 *1318:A3 4.5 
5 *83:15 *83:26 3.15 
6 *83:26 *1166:A1 5.58 
7 *83:26 *1160:A1 4.5 
8 *83:6 *1167:A2 5.4 
*END

*D_NET *84 0.00892639
*CONN
*I *1296:A1 I *D gf180mcu_fd_sc_mcu7t5v0__oai31_1
*I *1165:A1 I *D gf180mcu_fd_sc_mcu7t5v0__nor2_1
*I *1267:A1 I *D gf180mcu_fd_sc_mcu7t5v0__xor2_1
*I *1140:ZN O *D gf180mcu_fd_sc_mcu7t5v0__clkinv_1
*CAP
1 *1296:A1 0.000875712
2 *1165:A1 0.000232007
3 *1267:A1 0.000454398
4 *1140:ZN 0.000339237
5 *84:26 0.00122288
6 *1165:A1 *1165:A2 1.61174e-05
7 *1165:A1 *1277:A2 0.000772564
8 *1165:A1 *1279:A1 0.000120971
9 *1165:A1 *1311:I1 0.000101812
10 *1165:A1 *194:19 2.26729e-05
11 *1165:A1 *253:12 0.000156575
12 *1267:A1 *205:10 0
13 *1267:A1 *295:23 0.00090608
14 *1296:A1 *1273:A1 0.000539318
15 *1296:A1 *1274:A1 0.00069634
16 *1296:A1 *1277:A1 0.000353562
17 *1296:A1 *1277:A2 3.08015e-05
18 *1296:A1 *1296:B 0.000127736
19 *1296:A1 *1313:B 0.000113639
20 *1296:A1 *205:10 0.000301207
21 *1296:A1 *245:6 0.00110975
22 *1296:A1 *257:44 2.9185e-05
23 *84:26 *1311:I1 0.000148995
24 *84:26 *205:10 2.37216e-05
25 *84:26 *253:12 0.000207866
26 *84:26 *295:23 2.32439e-05
*RES
1 *1140:ZN *1267:A1 14.13 
2 *1267:A1 *84:26 10.8 
3 *84:26 *1165:A1 12.42 
4 *84:26 *1296:A1 29.25 
*END

*D_NET *85 0.00308671
*CONN
*I *1266:A1 I *D gf180mcu_fd_sc_mcu7t5v0__nand2_1
*I *1166:A3 I *D gf180mcu_fd_sc_mcu7t5v0__nand4_1
*I *1141:ZN O *D gf180mcu_fd_sc_mcu7t5v0__clkinv_1
*CAP
1 *1266:A1 0.000197269
2 *1166:A3 4.1056e-05
3 *1141:ZN 0.000209836
4 *85:8 0.000448161
5 *1166:A3 *1270:B 0.000169524
6 *1166:A3 *240:66 0.000428433
7 *1266:A1 *1269:A1 0
8 *1266:A1 *1269:A3 0.000209401
9 *1266:A1 *283:54 0.000651297
10 *85:8 *1269:A1 6.52652e-05
11 *85:8 *1278:A1 0.000309993
12 *85:8 *283:54 0.000172572
13 *1268:A1 *1166:A3 0.000183905
*RES
1 *1141:ZN *85:8 11.43 
2 *85:8 *1166:A3 10.17 
3 *85:8 *1266:A1 11.16 
*END

*D_NET *86 0.000569968
*CONN
*I *1190:A1 I *D gf180mcu_fd_sc_mcu7t5v0__aoi22_1
*I *1142:ZN O *D gf180mcu_fd_sc_mcu7t5v0__clkinv_1
*CAP
1 *1190:A1 9.40725e-05
2 *1142:ZN 9.40725e-05
3 *1190:A1 *1142:I 0.000137004
4 *1190:A1 *1198:A2 0
5 *1190:A1 *235:46 0.000244819
*RES
1 *1142:ZN *1190:A1 19.35 
*END

*D_NET *87 0.00678955
*CONN
*I *1198:A2 I *D gf180mcu_fd_sc_mcu7t5v0__aoi22_1
*I *1219:A2 I *D gf180mcu_fd_sc_mcu7t5v0__xor2_1
*I *1143:ZN O *D gf180mcu_fd_sc_mcu7t5v0__clkinv_1
*CAP
1 *1198:A2 0.00184985
2 *1219:A2 0.00032454
3 *1143:ZN 0
4 *87:6 0.00217439
5 *1198:A2 *1190:A2 8.22657e-05
6 *1198:A2 *1196:A2 3.84564e-05
7 *1198:A2 *1201:A2 6.54322e-05
8 *1198:A2 *1205:A2 0.000227032
9 *1198:A2 *1205:B1 0
10 *1198:A2 *1205:B2 0.000392679
11 *1198:A2 *1205:C1 9.41285e-06
12 *1198:A2 *1205:C2 0.000235173
13 *1198:A2 *89:25 0
14 *1198:A2 *97:8 1.79733e-05
15 *1198:A2 *231:46 0.000112652
16 *1219:A2 *1164:A2 0.000638823
17 *1219:A2 *1176:A2 6.20705e-05
18 *1219:A2 *1192:A1 0
19 *1219:A2 *1200:A2 9.52282e-05
20 *1219:A2 *1219:A1 9.34006e-05
21 *1219:A2 *1224:A1 0.0001578
22 *1219:A2 *224:52 6.98034e-05
23 *1219:A2 *224:56 0.00012775
24 *1219:A2 *231:46 1.48237e-05
25 *1190:A1 *1198:A2 0
*RES
1 *1143:ZN *87:6 9 
2 *87:6 *1219:A2 12.96 
3 *87:6 *1198:A2 22.32 
*END

*D_NET *88 0.0022756
*CONN
*I *1202:A2 I *D gf180mcu_fd_sc_mcu7t5v0__aoi22_1
*I *1204:A2 I *D gf180mcu_fd_sc_mcu7t5v0__oai22_1
*I *1144:ZN O *D gf180mcu_fd_sc_mcu7t5v0__clkinv_1
*CAP
1 *1202:A2 3.75042e-05
2 *1204:A2 1.21021e-05
3 *1144:ZN 0.000449979
4 *88:12 0.000499585
5 *1202:A2 *1203:A3 5.79059e-06
6 *1202:A2 *1207:A2 1.39839e-05
7 *1204:A2 *1204:A1 0.000310002
8 *1204:A2 *1206:A2 0.000310002
9 *88:12 *1203:A1 0
10 *88:12 *1203:A3 1.80322e-05
11 *88:12 *1203:A4 0.00016767
12 *88:12 *1207:A2 4.06083e-05
13 *88:12 *1207:A3 0.00026768
14 *88:12 *1362:I 0
15 *88:12 *250:23 0.000142658
*RES
1 *1144:ZN *88:12 8.46 
2 *88:12 *1204:A2 14.31 
3 *88:12 *1202:A2 4.77 
*END

*D_NET *89 0.00804008
*CONN
*I *1202:B2 I *D gf180mcu_fd_sc_mcu7t5v0__aoi22_1
*I *1205:A2 I *D gf180mcu_fd_sc_mcu7t5v0__oai222_1
*I *1163:A2 I *D gf180mcu_fd_sc_mcu7t5v0__xor2_1
*I *1227:A1 I *D gf180mcu_fd_sc_mcu7t5v0__xor2_1
*I *1145:ZN O *D gf180mcu_fd_sc_mcu7t5v0__clkinv_1
*CAP
1 *1202:B2 6.79161e-05
2 *1205:A2 5.59712e-05
3 *1163:A2 0.000255691
4 *1227:A1 9.26166e-05
5 *1145:ZN 0.000418807
6 *89:29 0.000341581
7 *89:25 0.00102567
8 *89:10 0.00143926
9 *1163:A2 *1163:A1 1.61174e-05
10 *1163:A2 *1181:A1 0.000285838
11 *1163:A2 *1184:A1 0
12 *1163:A2 *1190:B1 4.26729e-05
13 *1163:A2 *251:10 0.000146484
14 *1202:B2 *1200:A4 6.05946e-05
15 *1202:B2 *1206:A2 0.000463466
16 *1202:B2 *1207:A4 7.58618e-06
17 *1202:B2 *251:16 0.000601531
18 *1227:A1 *1188:A2 0.00057022
19 *89:10 *1188:A2 1.18477e-05
20 *89:25 *1188:A2 0.000987527
21 *89:25 *1203:A1 0.000153685
22 *89:25 *1203:A2 2.40587e-06
23 *89:25 *1203:A3 0
24 *89:25 *1207:A4 1.97545e-05
25 *89:29 *1181:A1 0.00026609
26 *89:29 *251:10 3.19635e-05
27 *89:29 *251:16 0.000447756
28 *1198:A2 *1205:A2 0.000227032
29 *1198:A2 *89:25 0
*RES
1 *1145:ZN *89:10 12.33 
2 *89:10 *1227:A1 10.44 
3 *89:10 *89:25 11.61 
4 *89:25 *89:29 6.03 
5 *89:29 *1163:A2 11.52 
6 *89:29 *1205:A2 9.63 
7 *89:25 *1202:B2 15.48 
*END

*D_NET *90 0.00176533
*CONN
*I *1190:B1 I *D gf180mcu_fd_sc_mcu7t5v0__aoi22_1
*I *1205:B1 I *D gf180mcu_fd_sc_mcu7t5v0__oai222_1
*I *1146:ZN O *D gf180mcu_fd_sc_mcu7t5v0__clkinv_1
*CAP
1 *1190:B1 0.000313546
2 *1205:B1 0.000533362
3 *1146:ZN 0.000219816
4 *1190:B1 *1163:A1 2.40933e-06
5 *1190:B1 *1205:B2 0.000371849
6 *1205:B1 *1184:A1 0
7 *1205:B1 *1205:C1 0.000125677
8 *1205:B1 *1205:C2 0.000156001
9 *1163:A2 *1190:B1 4.26729e-05
10 *1198:A2 *1205:B1 0
*RES
1 *1146:ZN *1205:B1 10.89 
2 *1205:B1 *1190:B1 11.61 
*END

*D_NET *91 0.00245164
*CONN
*I *1199:A1 I *D gf180mcu_fd_sc_mcu7t5v0__aoi221_1
*I *1204:B1 I *D gf180mcu_fd_sc_mcu7t5v0__oai22_1
*I *1147:ZN O *D gf180mcu_fd_sc_mcu7t5v0__clkinv_1
*CAP
1 *1199:A1 0
2 *1204:B1 0.000565869
3 *1147:ZN 7.50766e-05
4 *91:10 0.000640945
5 *1204:B1 *1179:A1 1.19491e-05
6 *1204:B1 *1179:A2 2.91338e-05
7 *1204:B1 *1199:A2 0.00073256
8 *1204:B1 *241:21 7.84068e-05
9 *91:10 *1178:A2 0.000317701
10 *91:10 *1179:A1 0
*RES
1 *1147:ZN *91:10 14.31 
2 *91:10 *1204:B1 9.81 
3 *91:10 *1199:A1 4.5 
*END

*D_NET *92 0.00514751
*CONN
*I *1185:A2 I *D gf180mcu_fd_sc_mcu7t5v0__xor2_1
*I *1236:A1 I *D gf180mcu_fd_sc_mcu7t5v0__nand2_1
*I *1148:ZN O *D gf180mcu_fd_sc_mcu7t5v0__clkinv_1
*CAP
1 *1185:A2 0.000326228
2 *1236:A1 0.000577863
3 *1148:ZN 0
4 *92:4 0.000904091
5 *1185:A2 *1148:I 9.84908e-05
6 *1185:A2 *1185:A1 0.00028281
7 *1185:A2 *1195:A1 0.000106324
8 *1185:A2 *1195:A2 9.90941e-05
9 *1185:A2 *168:27 0.00032331
10 *1185:A2 *281:102 0
11 *1236:A1 *1148:I 0.000357339
12 *1236:A1 *1208:A1 7.42275e-05
13 *1236:A1 *1217:A3 7.70028e-05
14 *1236:A1 *1236:A2 3.55118e-05
15 *1236:A1 *1238:A2 0.000783552
16 *1236:A1 *1238:A3 3.2519e-05
17 *1236:A1 *1365:I 0.000436469
18 *1236:A1 *130:8 0.000184087
19 *1236:A1 *168:12 0
20 *1236:A1 *168:27 0.000146312
21 *1236:A1 *236:40 0
22 *1236:A1 *242:26 0.000302284
*RES
1 *1148:ZN *92:4 4.5 
2 *92:4 *1236:A1 20.61 
3 *92:4 *1185:A2 8.55 
*END

*D_NET *93 0.00420336
*CONN
*I *1170:A1 I *D gf180mcu_fd_sc_mcu7t5v0__xor2_1
*I *1199:B1 I *D gf180mcu_fd_sc_mcu7t5v0__aoi221_1
*I *1149:ZN O *D gf180mcu_fd_sc_mcu7t5v0__clkinv_1
*CAP
1 *1170:A1 0.000474513
2 *1199:B1 4.06605e-05
3 *1149:ZN 0.000134586
4 *93:12 0.000649759
5 *1170:A1 *1147:I 0.000154129
6 *1170:A1 *1178:A2 0.000986985
7 *1170:A1 *1198:B2 0
8 *1170:A1 *1366:I 9.04462e-05
9 *1170:A1 *168:27 1.39839e-05
10 *1170:A1 *254:12 0.00109115
11 *1199:B1 *1199:A2 1.0415e-05
12 *1199:B1 *238:48 3.12451e-05
13 *93:12 *1178:A2 0.00023711
14 *93:12 *1198:B2 0
15 *93:12 *1203:A3 5.69319e-05
16 *93:12 *238:48 0.000231442
*RES
1 *1149:ZN *93:12 10.53 
2 *93:12 *1199:B1 9.27 
3 *93:12 *1170:A1 15.48 
*END

*D_NET *94 0.00258296
*CONN
*I *1239:A1 I *D gf180mcu_fd_sc_mcu7t5v0__nor2_1
*I *1243:A1 I *D gf180mcu_fd_sc_mcu7t5v0__nor3_1
*I *1194:A2 I *D gf180mcu_fd_sc_mcu7t5v0__aoi22_1
*I *1150:ZN O *D gf180mcu_fd_sc_mcu7t5v0__clkinv_1
*CAP
1 *1239:A1 6.99234e-05
2 *1243:A1 7.44167e-05
3 *1194:A2 5.58861e-05
4 *1150:ZN 0
5 *94:17 0.000378253
6 *94:4 0.000289799
7 *1194:A2 *1149:I 3.55118e-05
8 *1194:A2 *238:48 0.000236727
9 *1194:A2 *255:14 0.000575844
10 *1239:A1 *1242:A1 6.92081e-06
11 *1239:A1 *168:42 0.000108777
12 *1239:A1 *172:14 6.55454e-05
13 *1243:A1 *1242:A1 1.4382e-06
14 *1243:A1 *1242:A2 0
15 *1243:A1 *168:42 3.12451e-05
16 *1243:A1 *172:14 1.0415e-05
17 *94:17 *239:14 4.843e-05
18 *94:17 *243:56 0.000593822
*RES
1 *1150:ZN *94:4 4.5 
2 *94:4 *1194:A2 6.03 
3 *94:4 *94:17 11.07 
4 *94:17 *1243:A1 5.04 
5 *94:17 *1239:A1 5.31 
*END

*D_NET *95 0.00122206
*CONN
*I *1194:B1 I *D gf180mcu_fd_sc_mcu7t5v0__aoi22_1
*I *1151:ZN O *D gf180mcu_fd_sc_mcu7t5v0__clkinv_1
*CAP
1 *1194:B1 0.000114722
2 *1151:ZN 0.000114722
3 *1194:B1 *1198:B2 0.000609231
4 *1194:B1 *1199:C 0.000112152
5 *1194:B1 *1203:A3 0.000223407
6 *1194:B1 *226:30 4.78286e-05
*RES
1 *1151:ZN *1194:B1 20.16 
*END

*D_NET *96 0.0048319
*CONN
*I *1243:A2 I *D gf180mcu_fd_sc_mcu7t5v0__nor3_1
*I *1198:B2 I *D gf180mcu_fd_sc_mcu7t5v0__aoi22_1
*I *1152:ZN O *D gf180mcu_fd_sc_mcu7t5v0__clkinv_1
*CAP
1 *1243:A2 1.03834e-05
2 *1198:B2 0.000866892
3 *1152:ZN 1.37724e-05
4 *96:8 0.000891048
5 *1198:B2 *1151:I 0.000528649
6 *1198:B2 *1152:I 9.04462e-05
7 *1198:B2 *1197:A1 6.95539e-05
8 *1198:B2 *1198:B1 0.000215887
9 *1198:B2 *1199:C 0.000438232
10 *1198:B2 *1206:A1 3.24351e-05
11 *1198:B2 *1363:I 8.61061e-05
12 *1198:B2 *168:35 1.62669e-05
13 *1198:B2 *168:42 9.3226e-06
14 *1198:B2 *238:48 5.23429e-06
15 *1243:A2 *239:12 0.0002787
16 *1243:A2 *243:56 0.000310002
17 *96:8 *239:12 9.39061e-05
18 *96:8 *239:14 0.000101615
19 *96:8 *243:56 0.000164219
20 *1170:A1 *1198:B2 0
21 *1194:B1 *1198:B2 0.000609231
22 *93:12 *1198:B2 0
*RES
1 *1152:ZN *96:8 9.45 
2 *96:8 *1198:B2 26.37 
3 *96:8 *1243:A2 9.81 
*END

*D_NET *97 0.00239665
*CONN
*I *1196:A1 I *D gf180mcu_fd_sc_mcu7t5v0__aoi21_1
*I *1205:C1 I *D gf180mcu_fd_sc_mcu7t5v0__oai222_1
*I *1153:ZN O *D gf180mcu_fd_sc_mcu7t5v0__clkinv_1
*CAP
1 *1196:A1 0
2 *1205:C1 0.000393017
3 *1153:ZN 0.000341333
4 *97:8 0.00073435
5 *1205:C1 *1171:A1 4.16932e-05
6 *1205:C1 *1171:A2 0.000158798
7 *1205:C1 *1183:A2 0.000172267
8 *1205:C1 *1184:A1 0
9 *1205:C1 *1184:A2 0
10 *1205:C1 *1196:A2 5.00115e-05
11 *1205:C1 *1205:C2 0.000240733
12 *1205:C1 *230:32 1.19491e-05
13 *97:8 *1198:B1 0
14 *97:8 *230:32 9.9434e-05
15 *1198:A2 *1205:C1 9.41285e-06
16 *1198:A2 *97:8 1.79733e-05
17 *1205:B1 *1205:C1 0.000125677
*RES
1 *1153:ZN *97:8 7.02 
2 *97:8 *1205:C1 8.46 
3 *97:8 *1196:A1 4.5 
*END

*D_NET *98 0.00194267
*CONN
*I *1216:A1 I *D gf180mcu_fd_sc_mcu7t5v0__nor2_1
*I *1154:ZN O *D gf180mcu_fd_sc_mcu7t5v0__clkinv_1
*CAP
1 *1216:A1 0.000270891
2 *1154:ZN 0.000270891
3 *1216:A1 *1154:I 8.66127e-05
4 *1216:A1 *1397:I 0.000428433
5 *1216:A1 *1408:I 2.72966e-05
6 *1216:A1 *284:31 0.000397171
7 *1216:A1 *291:14 0.000252977
8 err_overflow_o *1216:A1 0.000101624
9 *1388:I *1216:A1 0.000106774
*RES
1 *1154:ZN *1216:A1 22.14 
*END

*D_NET *99 0.00235577
*CONN
*I *1283:A1 I *D gf180mcu_fd_sc_mcu7t5v0__nor2_1
*I *1265:A1 I *D gf180mcu_fd_sc_mcu7t5v0__or2_1
*I *1264:A1 I *D gf180mcu_fd_sc_mcu7t5v0__or2_1
*I *1155:ZN O *D gf180mcu_fd_sc_mcu7t5v0__clkinv_1
*CAP
1 *1283:A1 0.000209711
2 *1265:A1 0
3 *1264:A1 0.000598229
4 *1155:ZN 0.000299045
5 *99:21 0.000209711
6 *99:8 0.000897274
7 *1264:A1 *1354:SETN 9.29411e-06
8 *99:8 *1354:SETN 3.34588e-05
9 *1354:D *1264:A1 4.52264e-05
10 *1355:D *1283:A1 5.3819e-05
*RES
1 *1155:ZN *99:8 10.71 
2 *99:8 *1264:A1 12.78 
3 *99:8 *99:21 4.5 
4 *99:21 *1265:A1 4.5 
5 *99:21 *1283:A1 6.03 
*END

*D_NET *100 0.00183261
*CONN
*I *1316:A3 I *D gf180mcu_fd_sc_mcu7t5v0__nand4_1
*I *1317:A1 I *D gf180mcu_fd_sc_mcu7t5v0__oai21_1
*I *1156:ZN O *D gf180mcu_fd_sc_mcu7t5v0__clkinv_1
*CAP
1 *1316:A3 0
2 *1317:A1 0.000306639
3 *1156:ZN 0.000118731
4 *100:8 0.000425371
5 *1317:A1 *1315:A1 0
6 *1317:A1 *1317:B 0.00029527
7 *1317:A1 *1361:I 4.13239e-05
8 *1317:A1 *241:77 3.93913e-05
9 *1317:A1 *282:31 0.000390584
10 *1317:A1 *282:59 0
11 *100:8 *282:31 0.000210808
12 *100:8 *282:59 0
13 *100:8 *292:25 3.31517e-06
14 *100:8 *292:41 1.18076e-06
*RES
1 *1156:ZN *100:8 10.17 
2 *100:8 *1317:A1 12.24 
3 *100:8 *1316:A3 9 
*END

*D_NET *101 0.000161166
*CONN
*I *1287:A2 I *D gf180mcu_fd_sc_mcu7t5v0__oai211_1
*I *1157:ZN O *D gf180mcu_fd_sc_mcu7t5v0__clkinv_1
*CAP
1 *1287:A2 7.92558e-05
2 *1157:ZN 7.92558e-05
3 *43:22 *1287:A2 2.65444e-06
*RES
1 *1157:ZN *1287:A2 9.63 
*END

*D_NET *102 0.00209612
*CONN
*I *1303:A2 I *D gf180mcu_fd_sc_mcu7t5v0__nand2_1
*I *1158:ZN O *D gf180mcu_fd_sc_mcu7t5v0__clkinv_1
*CAP
1 *1303:A2 0.000602313
2 *1158:ZN 0.000602313
3 *1303:A2 *1303:A1 0.000365454
4 *1303:A2 *1406:I 1.86887e-06
5 *1303:A2 *246:8 4.36647e-05
6 *1303:A2 *257:10 1.27836e-05
7 *1303:A2 *284:61 0
8 rx_data_o[7] *1303:A2 0.000436478
9 *1384:I *1303:A2 3.12455e-05
*RES
1 *1158:ZN *1303:A2 23.04 
*END

*D_NET *103 0.00453745
*CONN
*I *1212:A3 I *D gf180mcu_fd_sc_mcu7t5v0__nand3_1
*I *1166:A4 I *D gf180mcu_fd_sc_mcu7t5v0__nand4_1
*I *1160:A2 I *D gf180mcu_fd_sc_mcu7t5v0__nand2_1
*I *1209:A2 I *D gf180mcu_fd_sc_mcu7t5v0__xor2_1
*I *1159:ZN O *D gf180mcu_fd_sc_mcu7t5v0__nor2_1
*CAP
1 *1212:A3 0.00035943
2 *1166:A4 3.51202e-05
3 *1160:A2 0
4 *1209:A2 0.000342644
5 *1159:ZN 0.00012814
6 *103:29 0.000590686
7 *103:20 0.00041064
8 *1166:A4 *1270:B 0.000294431
9 *1166:A4 *240:66 5.59262e-05
10 *1209:A2 *197:16 0.000336058
11 *1212:A3 *1266:A2 0.000169925
12 *1212:A3 *1270:B 0.00014089
13 *1212:A3 *1319:A3 0.000837435
14 *1212:A3 *244:78 4.16602e-05
15 *103:20 *1269:A1 0
16 *103:20 *109:8 0.000114748
17 *103:29 *1269:A1 0
18 *103:29 *1270:B 4.34597e-05
19 *1209:A1 *1209:A2 0.000210501
20 *1268:A1 *1166:A4 0.000425761
*RES
1 *1159:ZN *1209:A2 11.07 
2 *1209:A2 *103:20 10.89 
3 *103:20 *1160:A2 9 
4 *103:20 *103:29 1.17 
5 *103:29 *1166:A4 10.17 
6 *103:29 *1212:A3 12.87 
*END

*D_NET *104 0.00138597
*CONN
*I *1177:A1 I *D gf180mcu_fd_sc_mcu7t5v0__nor4_1
*I *1161:Z O *D gf180mcu_fd_sc_mcu7t5v0__xor2_1
*CAP
1 *1177:A1 0.000228119
2 *1161:Z 0.000228119
3 *1177:A1 *1177:A2 0.000428433
4 *1177:A1 *1181:A1 0.000224573
5 *1177:A1 *248:14 2.59366e-05
6 *1177:A1 *250:8 0.000227493
7 *1177:A1 *251:10 2.32916e-05
*RES
1 *1161:Z *1177:A1 20.7 
*END

*D_NET *105 0.000677985
*CONN
*I *1180:A1 I *D gf180mcu_fd_sc_mcu7t5v0__nor4_1
*I *1162:Z O *D gf180mcu_fd_sc_mcu7t5v0__xor2_1
*CAP
1 *1180:A1 8.0829e-05
2 *1162:Z 8.0829e-05
3 *1180:A1 *1181:A2 7.86261e-05
4 *1180:A1 *236:40 1.19491e-05
5 *1180:A1 *276:84 0.000425752
*RES
1 *1162:Z *1180:A1 10.17 
*END

*D_NET *106 0.0010713
*CONN
*I *1184:A1 I *D gf180mcu_fd_sc_mcu7t5v0__nand3_1
*I *1163:Z O *D gf180mcu_fd_sc_mcu7t5v0__xor2_1
*CAP
1 *1184:A1 0.000514769
2 *1163:Z 0.000514769
3 *1184:A1 *1171:A1 1.56862e-05
4 *1184:A1 *1184:A2 1.79237e-05
5 *1184:A1 *1205:C2 8.15289e-06
6 *1163:A2 *1184:A1 0
7 *1205:B1 *1184:A1 0
8 *1205:C1 *1184:A1 0
*RES
1 *1163:Z *1184:A1 12.15 
*END

*D_NET *107 0.00127099
*CONN
*I *1177:A2 I *D gf180mcu_fd_sc_mcu7t5v0__nor4_1
*I *1164:Z O *D gf180mcu_fd_sc_mcu7t5v0__xor2_1
*CAP
1 *1177:A2 0.000213989
2 *1164:Z 0.000213989
3 *1177:A2 *1161:A2 4.30692e-05
4 *1177:A2 *1200:A2 0.000365537
5 *1177:A2 *1200:A3 5.97457e-06
6 *1177:A2 *248:14 0
7 *1177:A1 *1177:A2 0.000428433
*RES
1 *1164:Z *1177:A2 11.7 
*END

*D_NET *108 0.00127242
*CONN
*I *1278:A2 I *D gf180mcu_fd_sc_mcu7t5v0__oai22_1
*I *1165:ZN O *D gf180mcu_fd_sc_mcu7t5v0__nor2_1
*CAP
1 *1278:A2 0.000111252
2 *1165:ZN 0.000111252
3 *1278:A2 *1165:A2 0.00027566
4 *1278:A2 *1278:A1 0.000380315
5 *1278:A2 *194:19 2.13487e-05
6 *1278:A2 *283:54 0.000372597
*RES
1 *1165:ZN *1278:A2 19.8 
*END

*D_NET *109 0.00794064
*CONN
*I *1270:B I *D gf180mcu_fd_sc_mcu7t5v0__oai21_1
*I *1168:B I *D gf180mcu_fd_sc_mcu7t5v0__oai21_1
*I *1211:A1 I *D gf180mcu_fd_sc_mcu7t5v0__aoi21_1
*I *1210:A1 I *D gf180mcu_fd_sc_mcu7t5v0__nand2_1
*I *1166:ZN O *D gf180mcu_fd_sc_mcu7t5v0__nand4_1
*CAP
1 *1270:B 0.000588971
2 *1168:B 0
3 *1211:A1 6.23463e-05
4 *1210:A1 0.000102298
5 *1166:ZN 0.00105501
6 *109:10 0.000416748
7 *109:8 0.000718139
8 *1210:A1 *1210:A2 0.000455757
9 *1210:A1 *1211:B 3.42509e-05
10 *1211:A1 *244:35 6.06389e-05
11 *1270:B *1269:A1 0.000113433
12 *1270:B *240:66 0.000276943
13 *109:8 *1269:A1 0.00065075
14 *109:8 *152:12 0.000924839
15 *109:10 *1210:A2 0.000174506
16 *109:10 *152:12 0.00145765
17 *1166:A3 *1270:B 0.000169524
18 *1166:A4 *1270:B 0.000294431
19 *1212:A3 *1270:B 0.00014089
20 *1268:A1 *1270:B 8.53098e-05
21 *103:20 *109:8 0.000114748
22 *103:29 *1270:B 4.34597e-05
*RES
1 *1166:ZN *109:8 15.03 
2 *109:8 *109:10 4.05 
3 *109:10 *1210:A1 10.35 
4 *109:10 *1211:A1 9.45 
5 *109:8 *1168:B 9 
6 *1166:ZN *1270:B 23.22 
*END

*D_NET *110 0.0122059
*CONN
*I *1269:A1 I *D gf180mcu_fd_sc_mcu7t5v0__nor3_1
*I *1168:A2 I *D gf180mcu_fd_sc_mcu7t5v0__oai21_1
*I *1272:A2 I *D gf180mcu_fd_sc_mcu7t5v0__nor2_1
*I *1284:A2 I *D gf180mcu_fd_sc_mcu7t5v0__oai21_1
*I *1167:ZN O *D gf180mcu_fd_sc_mcu7t5v0__nand2_1
*CAP
1 *1269:A1 0.000714741
2 *1168:A2 6.8432e-05
3 *1272:A2 0
4 *1284:A2 0.000183096
5 *1167:ZN 0.000458318
6 *110:34 0.00113827
7 *110:25 0.000410136
8 *110:10 0.000696454
9 *1168:A2 *152:12 0.000393144
10 *1168:A2 *283:54 0
11 *1269:A1 *1141:I 9.43472e-05
12 *1269:A1 *1269:A3 3.10728e-05
13 *1269:A1 *1278:A1 0
14 *1269:A1 *152:12 0.000260704
15 *1269:A1 *283:54 0
16 *1269:A1 *294:10 0.000193387
17 *1284:A2 *1322:RN 0
18 *1284:A2 *1369:I 3.91833e-05
19 *110:10 *1369:I 0.000271809
20 *110:10 *197:16 0.000393144
21 *110:25 *1272:A1 0.000112822
22 *110:25 *1282:B 0.00076373
23 *110:25 *197:16 0
24 *110:34 *1272:A1 0.00157855
25 *110:34 *283:56 0
26 *1167:A2 *110:10 9.85004e-05
27 *1168:A1 *110:34 8.45603e-05
28 *1266:A1 *1269:A1 0
29 *1270:B *1269:A1 0.000113433
30 *1285:I0 *1284:A2 1.61174e-05
31 *41:8 *1284:A2 0.000229402
32 *41:8 *110:10 0.000664135
33 *41:55 *110:10 0.000919223
34 *42:25 *110:10 9.85004e-05
35 *42:61 *1284:A2 0.000157911
36 *42:61 *110:25 0.00104782
37 *42:61 *110:34 0.000258909
38 *85:8 *1269:A1 6.52652e-05
39 *103:20 *1269:A1 0
40 *103:29 *1269:A1 0
41 *109:8 *1269:A1 0.00065075
*RES
1 *1167:ZN *110:10 14.58 
2 *110:10 *1284:A2 10.8 
3 *110:10 *110:25 7.29 
4 *110:25 *1272:A2 4.5 
5 *110:25 *110:34 9.27 
6 *110:34 *1168:A2 9.99 
7 *110:34 *1269:A1 16.47 
*END

*D_NET *111 0.00923752
*CONN
*I *1187:A1 I *D gf180mcu_fd_sc_mcu7t5v0__or4_1
*I *1207:A1 I *D gf180mcu_fd_sc_mcu7t5v0__nand4_1
*I *1168:ZN O *D gf180mcu_fd_sc_mcu7t5v0__oai21_1
*CAP
1 *1187:A1 0
2 *1207:A1 0.000174494
3 *1168:ZN 0.0014583
4 *111:12 0.00163279
5 *1207:A1 *1181:A1 0.00172397
6 *1207:A1 *1187:A2 0.000420632
7 *1207:A1 *1200:A4 0
8 *1207:A1 *1366:I 9.3226e-06
9 *1207:A1 *150:8 0.0020884
10 *1207:A1 *235:46 0
11 *1207:A1 *241:39 0.000140022
12 *111:12 *1187:A2 2.98938e-05
13 *111:12 *1200:A4 0.000262124
14 *111:12 *1208:A2 1.37669e-05
15 *111:12 *1217:A1 9.52917e-05
16 *111:12 *1272:A1 0
17 *111:12 *1335:CLK 2.49316e-05
18 *111:12 *150:8 1.16291e-05
19 *111:12 *240:10 4.78286e-05
20 *111:12 *240:14 0
21 *111:12 *244:12 7.62514e-05
22 *111:12 *244:35 0.000749856
23 *111:12 *283:54 2.98938e-05
24 *111:12 *283:56 0.000248121
*RES
1 *1168:ZN *111:12 26.82 
2 *111:12 *1207:A1 19.98 
3 *111:12 *1187:A1 4.5 
*END

*D_NET *112 0.000961806
*CONN
*I *1182:A1 I *D gf180mcu_fd_sc_mcu7t5v0__nor4_1
*I *1169:Z O *D gf180mcu_fd_sc_mcu7t5v0__xor2_1
*CAP
1 *1182:A1 0.000216955
2 *1169:Z 0.000216955
3 *1182:A1 *1182:A3 0.000147305
4 *1182:A1 *230:32 0.00038059
*RES
1 *1169:Z *1182:A1 11.43 
*END

*D_NET *113 0.000576684
*CONN
*I *1186:A1 I *D gf180mcu_fd_sc_mcu7t5v0__nand2_1
*I *1170:Z O *D gf180mcu_fd_sc_mcu7t5v0__xor2_1
*CAP
1 *1186:A1 0.000165713
2 *1170:Z 0.000165713
3 *1186:A1 *1366:I 6.93035e-05
4 *1186:A1 *241:11 0
5 *1186:A1 *254:12 4.82191e-05
6 *26:10 *1186:A1 0.000127736
*RES
1 *1170:Z *1186:A1 19.62 
*END

*D_NET *114 0.00186448
*CONN
*I *1182:A2 I *D gf180mcu_fd_sc_mcu7t5v0__nor4_1
*I *1171:Z O *D gf180mcu_fd_sc_mcu7t5v0__xor2_1
*CAP
1 *1182:A2 0.000315717
2 *1171:Z 0.000315717
3 *1182:A2 *1184:A2 0.00123305
*RES
1 *1171:Z *1182:A2 12.33 
*END

*D_NET *115 0.00225132
*CONN
*I *1180:A2 I *D gf180mcu_fd_sc_mcu7t5v0__nor4_1
*I *1172:Z O *D gf180mcu_fd_sc_mcu7t5v0__xor2_1
*CAP
1 *1180:A2 0.000486999
2 *1172:Z 0.000486999
3 *1180:A2 *1162:A1 0.00026803
4 *1180:A2 *237:22 0.000673473
5 *1180:A2 *276:84 0.000335822
*RES
1 *1172:Z *1180:A2 14.85 
*END

*D_NET *116 0.000600748
*CONN
*I *1182:A3 I *D gf180mcu_fd_sc_mcu7t5v0__nor4_1
*I *1173:Z O *D gf180mcu_fd_sc_mcu7t5v0__xor2_1
*CAP
1 *1182:A3 0.000202038
2 *1173:Z 0.000202038
3 *1182:A3 *1182:A4 4.93662e-05
4 *1182:A1 *1182:A3 0.000147305
*RES
1 *1173:Z *1182:A3 10.71 
*END

*D_NET *117 0.000616882
*CONN
*I *1182:A4 I *D gf180mcu_fd_sc_mcu7t5v0__nor4_1
*I *1174:Z O *D gf180mcu_fd_sc_mcu7t5v0__xor2_1
*CAP
1 *1182:A4 0.000274895
2 *1174:Z 0.000274895
3 *1182:A4 *279:18 1.77247e-05
4 *1182:A3 *1182:A4 4.93662e-05
*RES
1 *1174:Z *1182:A4 10.89 
*END

*D_NET *118 0.00310555
*CONN
*I *1177:A3 I *D gf180mcu_fd_sc_mcu7t5v0__nor4_1
*I *1175:Z O *D gf180mcu_fd_sc_mcu7t5v0__xor2_1
*CAP
1 *1177:A3 0.000773936
2 *1175:Z 0.000773936
3 *1177:A3 *1183:A1 9.84908e-05
4 *1177:A3 *1184:A3 9.07674e-05
5 *1177:A3 *1189:A2 5.15895e-05
6 *1177:A3 *1193:A1 0.000887016
7 *1177:A3 *1200:A1 1.49624e-05
8 *1177:A3 *1200:A2 3.15508e-05
9 *1177:A3 *1200:A3 5.17478e-05
10 *1177:A3 *1200:A4 0.000100113
11 *1177:A3 *1201:A4 0.000231442
*RES
1 *1175:Z *1177:A3 15.75 
*END

*D_NET *119 0.00177086
*CONN
*I *1177:A4 I *D gf180mcu_fd_sc_mcu7t5v0__nor4_1
*I *1176:Z O *D gf180mcu_fd_sc_mcu7t5v0__xor2_1
*CAP
1 *1177:A4 0.000493053
2 *1176:Z 0.000493053
3 *1177:A4 *1161:A1 0.000280416
4 *1177:A4 *1181:A1 0.000223407
5 *1177:A4 *1200:A2 5.39063e-05
6 *1177:A4 *248:14 0.000227025
*RES
1 *1176:Z *1177:A4 13.14 
*END

*D_NET *120 0.00708626
*CONN
*I *1181:A1 I *D gf180mcu_fd_sc_mcu7t5v0__nand2_1
*I *1177:ZN O *D gf180mcu_fd_sc_mcu7t5v0__nor4_1
*CAP
1 *1181:A1 0.000873366
2 *1177:ZN 0.000873366
3 *1181:A1 *1162:A1 0.00074423
4 *1181:A1 *1200:A2 9.55009e-05
5 *1181:A1 *1200:A4 4.55594e-05
6 *1181:A1 *1207:A4 0.000580984
7 *1181:A1 *235:46 0
8 *1181:A1 *250:8 0.000261076
9 *1181:A1 *250:23 0.000513075
10 *1181:A1 *251:10 0.000176244
11 *1181:A1 *251:16 0.000198972
12 *1163:A2 *1181:A1 0.000285838
13 *1177:A1 *1181:A1 0.000224573
14 *1177:A4 *1181:A1 0.000223407
15 *1207:A1 *1181:A1 0.00172397
16 *89:29 *1181:A1 0.00026609
*RES
1 *1177:ZN *1181:A1 33.12 
*END

*D_NET *121 0.00249296
*CONN
*I *1180:A3 I *D gf180mcu_fd_sc_mcu7t5v0__nor4_1
*I *1178:Z O *D gf180mcu_fd_sc_mcu7t5v0__xor2_1
*CAP
1 *1180:A3 0.000464015
2 *1178:Z 0.000464015
3 *1180:A3 *1147:I 1.0415e-05
4 *1180:A3 *1180:A4 0.00123037
5 *1180:A3 *241:21 7.79726e-05
6 *1180:A3 *276:84 0.000246181
*RES
1 *1178:Z *1180:A3 14.31 
*END

*D_NET *122 0.0018744
*CONN
*I *1180:A4 I *D gf180mcu_fd_sc_mcu7t5v0__nor4_1
*I *1179:Z O *D gf180mcu_fd_sc_mcu7t5v0__xor2_1
*CAP
1 *1180:A4 0.000290426
2 *1179:Z 0.000290426
3 *1180:A4 *241:21 6.31783e-05
4 *1180:A3 *1180:A4 0.00123037
*RES
1 *1179:Z *1180:A4 12.33 
*END

*D_NET *123 0.000532622
*CONN
*I *1181:A2 I *D gf180mcu_fd_sc_mcu7t5v0__nand2_1
*I *1180:ZN O *D gf180mcu_fd_sc_mcu7t5v0__nor4_1
*CAP
1 *1181:A2 0.000156987
2 *1180:ZN 0.000156987
3 *1181:A2 *236:40 0.000140022
4 *1180:A1 *1181:A2 7.86261e-05
*RES
1 *1180:ZN *1181:A2 10.44 
*END

*D_NET *124 0.00117608
*CONN
*I *1187:A2 I *D gf180mcu_fd_sc_mcu7t5v0__or4_1
*I *1181:ZN O *D gf180mcu_fd_sc_mcu7t5v0__nand2_1
*CAP
1 *1187:A2 0.000133629
2 *1181:ZN 0.000133629
3 *1187:A2 *1200:A4 1.99397e-05
4 *1187:A2 *1366:I 0.000354738
5 *1187:A2 *150:8 6.85018e-05
6 *1187:A2 *241:39 1.51153e-05
7 *1207:A1 *1187:A2 0.000420632
8 *111:12 *1187:A2 2.98938e-05
*RES
1 *1181:ZN *1187:A2 20.16 
*END

*D_NET *125 0.00255224
*CONN
*I *1184:A2 I *D gf180mcu_fd_sc_mcu7t5v0__nand3_1
*I *1182:ZN O *D gf180mcu_fd_sc_mcu7t5v0__nor4_1
*CAP
1 *1184:A2 0.000502656
2 *1182:ZN 0.000502656
3 *1184:A2 *1171:A1 5.69514e-05
4 *1184:A2 *1183:A2 1.91698e-05
5 *1184:A2 *1184:A3 0
6 *1184:A2 *230:32 0.000219834
7 *1182:A2 *1184:A2 0.00123305
8 *1184:A1 *1184:A2 1.79237e-05
9 *1205:C1 *1184:A2 0
*RES
1 *1182:ZN *1184:A2 14.4 
*END

*D_NET *126 0.00106973
*CONN
*I *1184:A3 I *D gf180mcu_fd_sc_mcu7t5v0__nand3_1
*I *1183:ZN O *D gf180mcu_fd_sc_mcu7t5v0__xnor2_1
*CAP
1 *1184:A3 0.00025624
2 *1183:ZN 0.00025624
3 *1184:A3 *1201:A4 4.47952e-05
4 *1184:A3 *252:12 0.000421685
5 *1177:A3 *1184:A3 9.07674e-05
6 *1184:A2 *1184:A3 0
*RES
1 *1183:ZN *1184:A3 20.16 
*END

*D_NET *127 0.00465101
*CONN
*I *1187:A3 I *D gf180mcu_fd_sc_mcu7t5v0__or4_1
*I *1184:ZN O *D gf180mcu_fd_sc_mcu7t5v0__nand3_1
*CAP
1 *1187:A3 0.00123152
2 *1184:ZN 0.00123152
3 *1187:A3 *1171:A2 0
4 *1187:A3 *1187:A4 8.69474e-05
5 *1187:A3 *1195:A2 8.8469e-05
6 *1187:A3 *1200:A4 0.000961354
7 *1187:A3 *1201:A4 0
8 *1187:A3 *1205:C2 0.000175038
9 *1187:A3 *1206:A3 0.000176901
10 *1187:A3 *1207:A2 0.000375423
11 *1187:A3 *1366:I 0.000223398
12 *1187:A3 *236:40 1.47998e-05
13 *1187:A3 *252:12 8.56272e-05
*RES
1 *1184:ZN *1187:A3 32.22 
*END

*D_NET *128 0.000197634
*CONN
*I *1186:A2 I *D gf180mcu_fd_sc_mcu7t5v0__nand2_1
*I *1185:Z O *D gf180mcu_fd_sc_mcu7t5v0__xor2_1
*CAP
1 *1186:A2 5.04646e-05
2 *1185:Z 5.04646e-05
3 *1186:A2 *1187:A4 4.83522e-05
4 *1186:A2 *168:27 4.83522e-05
*RES
1 *1185:Z *1186:A2 9.63 
*END

*D_NET *129 0.00134328
*CONN
*I *1187:A4 I *D gf180mcu_fd_sc_mcu7t5v0__or4_1
*I *1186:ZN O *D gf180mcu_fd_sc_mcu7t5v0__nand2_1
*CAP
1 *1187:A4 0.000307737
2 *1186:ZN 0.000307737
3 *1187:A4 *1200:A4 0.000127736
4 *1187:A4 *1366:I 0.00024161
5 *1187:A4 *168:27 0.000223162
6 *1186:A2 *1187:A4 4.83522e-05
7 *1187:A3 *1187:A4 8.69474e-05
*RES
1 *1186:ZN *1187:A4 12.6 
*END

*D_NET *130 0.00112114
*CONN
*I *1217:A1 I *D gf180mcu_fd_sc_mcu7t5v0__nand3_1
*I *1208:A1 I *D gf180mcu_fd_sc_mcu7t5v0__and2_1
*I *1187:Z O *D gf180mcu_fd_sc_mcu7t5v0__or4_1
*CAP
1 *1217:A1 7.14421e-05
2 *1208:A1 5.9455e-05
3 *1187:Z 6.76236e-05
4 *130:8 0.000198521
5 *1208:A1 *1217:A3 3.01487e-05
6 *1208:A1 *168:27 5.30751e-05
7 *1217:A1 *1208:A2 0.000125101
8 *1217:A1 *150:8 8.56272e-05
9 *130:8 *168:27 7.65425e-05
10 *1236:A1 *1208:A1 7.42275e-05
11 *1236:A1 *130:8 0.000184087
12 *111:12 *1217:A1 9.52917e-05
*RES
1 *1187:Z *130:8 5.4 
2 *130:8 *1208:A1 5.22 
3 *130:8 *1217:A1 14.67 
*END

*D_NET *131 0.000832494
*CONN
*I *1203:A1 I *D gf180mcu_fd_sc_mcu7t5v0__and4_1
*I *1188:ZN O *D gf180mcu_fd_sc_mcu7t5v0__xnor2_1
*CAP
1 *1203:A1 0.0003195
2 *1188:ZN 0.0003195
3 *1203:A1 *1203:A2 3.98088e-05
4 *88:12 *1203:A1 0
5 *89:25 *1203:A1 0.000153685
*RES
1 *1188:ZN *1203:A1 11.52 
*END

*D_NET *132 0.00234258
*CONN
*I *1200:A1 I *D gf180mcu_fd_sc_mcu7t5v0__nor4_1
*I *1189:Z O *D gf180mcu_fd_sc_mcu7t5v0__xor2_1
*CAP
1 *1200:A1 0.000353461
2 *1189:Z 0.000353461
3 *1200:A1 *1179:A1 0.000279469
4 *1200:A1 *1183:A1 1.17652e-05
5 *1200:A1 *1189:A1 5.78854e-06
6 *1200:A1 *1189:A2 3.01487e-05
7 *1200:A1 *1193:A1 2.58224e-05
8 *1200:A1 *1198:A1 0
9 *1200:A1 *1200:A3 0.000925219
10 *1200:A1 *1201:A4 2.99208e-05
11 *1200:A1 *285:10 0.000312562
12 *1177:A3 *1200:A1 1.49624e-05
*RES
1 *1189:Z *1200:A1 21.96 
*END

*D_NET *133 0.00187306
*CONN
*I *1203:A2 I *D gf180mcu_fd_sc_mcu7t5v0__and4_1
*I *1190:ZN O *D gf180mcu_fd_sc_mcu7t5v0__aoi22_1
*CAP
1 *1203:A2 0.000266224
2 *1190:ZN 0.000266224
3 *1203:A2 *1142:I 0.000588693
4 *1203:A2 *1203:A3 3.54696e-05
5 *1203:A2 *235:46 0.000416253
6 *1203:A2 *250:23 0.000257978
7 *1203:A1 *1203:A2 3.98088e-05
8 *89:25 *1203:A2 2.40587e-06
*RES
1 *1190:ZN *1203:A2 22.32 
*END

*D_NET *134 0.00331933
*CONN
*I *1206:A1 I *D gf180mcu_fd_sc_mcu7t5v0__nor3_1
*I *1191:Z O *D gf180mcu_fd_sc_mcu7t5v0__xor2_1
*CAP
1 *1206:A1 0.00126543
2 *1191:Z 0.00126543
3 *1206:A1 *1197:A1 9.85004e-05
4 *1206:A1 *1201:A2 2.31163e-05
5 *1206:A1 *1201:A4 0.000218532
6 *1206:A1 *1203:A3 3.96404e-05
7 *1206:A1 *1207:A2 0.000338693
8 *1206:A1 *226:30 3.7547e-05
9 *1198:B2 *1206:A1 3.24351e-05
*RES
1 *1191:Z *1206:A1 18.54 
*END

*D_NET *135 0.00363541
*CONN
*I *1200:A2 I *D gf180mcu_fd_sc_mcu7t5v0__nor4_1
*I *1192:Z O *D gf180mcu_fd_sc_mcu7t5v0__xor2_1
*CAP
1 *1200:A2 0.000502969
2 *1192:Z 0.000502969
3 *1200:A2 *1161:A1 0.00110942
4 *1200:A2 *1161:A2 0
5 *1200:A2 *1164:A2 0.000507873
6 *1200:A2 *1176:A1 0.000169927
7 *1200:A2 *1192:A1 5.50498e-05
8 *1200:A2 *1200:A3 6.44696e-05
9 *1200:A2 *1200:A4 4.18617e-05
10 *1200:A2 *224:56 3.91523e-05
11 *1200:A2 *248:14 0
12 *1200:A2 *251:10 0
13 *1177:A2 *1200:A2 0.000365537
14 *1177:A3 *1200:A2 3.15508e-05
15 *1177:A4 *1200:A2 5.39063e-05
16 *1181:A1 *1200:A2 9.55009e-05
17 *1219:A2 *1200:A2 9.52282e-05
*RES
1 *1192:Z *1200:A2 25.38 
*END

*D_NET *136 0.00230727
*CONN
*I *1200:A3 I *D gf180mcu_fd_sc_mcu7t5v0__nor4_1
*I *1193:Z O *D gf180mcu_fd_sc_mcu7t5v0__xor2_1
*CAP
1 *1200:A3 0.000404012
2 *1193:Z 0.000404012
3 *1200:A3 *1189:A2 0.000208323
4 *1200:A3 *248:14 0.000197305
5 *1200:A3 *252:12 2.30981e-05
6 *1200:A3 *285:10 2.31089e-05
7 *1177:A2 *1200:A3 5.97457e-06
8 *1177:A3 *1200:A3 5.17478e-05
9 *1200:A1 *1200:A3 0.000925219
10 *1200:A2 *1200:A3 6.44696e-05
*RES
1 *1193:Z *1200:A3 14.85 
*END

*D_NET *137 0.0043651
*CONN
*I *1203:A3 I *D gf180mcu_fd_sc_mcu7t5v0__and4_1
*I *1194:ZN O *D gf180mcu_fd_sc_mcu7t5v0__aoi22_1
*CAP
1 *1203:A3 0.00144525
2 *1194:ZN 0.00144525
3 *1203:A3 *1149:I 0.000294431
4 *1203:A3 *1199:A2 0
5 *1203:A3 *1201:A3 2.03826e-05
6 *1203:A3 *1202:B1 9.20679e-05
7 *1203:A3 *1203:A4 0.000292238
8 *1203:A3 *1207:A2 7.15751e-05
9 *1203:A3 *1207:A4 3.75297e-05
10 *1203:A3 *226:30 0.000221409
11 *1203:A3 *238:48 6.56871e-05
12 *1194:B1 *1203:A3 0.000223407
13 *1202:A2 *1203:A3 5.79059e-06
14 *1203:A2 *1203:A3 3.54696e-05
15 *1206:A1 *1203:A3 3.96404e-05
16 *88:12 *1203:A3 1.80322e-05
17 *89:25 *1203:A3 0
18 *93:12 *1203:A3 5.69319e-05
*RES
1 *1194:ZN *1203:A3 19.89 
*END

*D_NET *138 0.00951626
*CONN
*I *1200:A4 I *D gf180mcu_fd_sc_mcu7t5v0__nor4_1
*I *1195:Z O *D gf180mcu_fd_sc_mcu7t5v0__xor2_1
*CAP
1 *1200:A4 0.00116021
2 *1195:Z 0.00116021
3 *1200:A4 *1162:A1 1.55322e-05
4 *1200:A4 *1195:A2 0
5 *1200:A4 *1199:A2 0.000247389
6 *1200:A4 *1204:A1 2.35868e-05
7 *1200:A4 *1205:C2 0.000204168
8 *1200:A4 *1206:A2 0.00124463
9 *1200:A4 *1206:A3 0.000546617
10 *1200:A4 *1366:I 5.79792e-06
11 *1200:A4 *168:27 0.000365454
12 *1200:A4 *237:22 0.000611791
13 *1200:A4 *251:10 0.00213137
14 *1200:A4 *251:16 0.000126935
15 *1200:A4 *252:12 5.32785e-05
16 *1177:A3 *1200:A4 0.000100113
17 *1181:A1 *1200:A4 4.55594e-05
18 *1187:A2 *1200:A4 1.99397e-05
19 *1187:A3 *1200:A4 0.000961354
20 *1187:A4 *1200:A4 0.000127736
21 *1200:A2 *1200:A4 4.18617e-05
22 *1202:B2 *1200:A4 6.05946e-05
23 *1207:A1 *1200:A4 0
24 *111:12 *1200:A4 0.000262124
*RES
1 *1195:Z *1200:A4 36.9 
*END

*D_NET *139 0.00101961
*CONN
*I *1201:A1 I *D gf180mcu_fd_sc_mcu7t5v0__and4_1
*I *1196:ZN O *D gf180mcu_fd_sc_mcu7t5v0__aoi21_1
*CAP
1 *1201:A1 0.000137444
2 *1196:ZN 0.000137444
3 *1201:A1 *1179:A1 0.000744726
4 *1201:A1 *1198:A1 0
*RES
1 *1196:ZN *1201:A1 19.89 
*END

*D_NET *140 0.00180561
*CONN
*I *1199:C I *D gf180mcu_fd_sc_mcu7t5v0__aoi221_1
*I *1197:Z O *D gf180mcu_fd_sc_mcu7t5v0__xor2_1
*CAP
1 *1199:C 0.000497257
2 *1197:Z 0.000497257
3 *1199:C *1194:B2 1.54403e-05
4 *1199:C *1359:I 1.75386e-05
5 *1199:C *238:48 0.000189245
6 *1199:C *239:14 3.27495e-05
7 *1199:C *241:21 5.74356e-06
8 *1199:C *255:14 0
9 *1194:B1 *1199:C 0.000112152
10 *1198:B2 *1199:C 0.000438232
*RES
1 *1197:Z *1199:C 22.86 
*END

*D_NET *141 0.000731304
*CONN
*I *1201:A2 I *D gf180mcu_fd_sc_mcu7t5v0__and4_1
*I *1198:ZN O *D gf180mcu_fd_sc_mcu7t5v0__aoi22_1
*CAP
1 *1201:A2 0.000321378
2 *1198:ZN 0.000321378
3 *1198:A2 *1201:A2 6.54322e-05
4 *1206:A1 *1201:A2 2.31163e-05
*RES
1 *1198:ZN *1201:A2 10.89 
*END

*D_NET *142 0.00165028
*CONN
*I *1201:A3 I *D gf180mcu_fd_sc_mcu7t5v0__and4_1
*I *1199:ZN O *D gf180mcu_fd_sc_mcu7t5v0__aoi221_1
*CAP
1 *1201:A3 0.000431654
2 *1199:ZN 0.000431654
3 *1201:A3 *1178:A2 0
4 *1201:A3 *1179:A1 0.000615162
5 *1201:A3 *1199:A2 0.000151427
6 *1203:A3 *1201:A3 2.03826e-05
*RES
1 *1199:ZN *1201:A3 22.5 
*END

*D_NET *143 0.0044206
*CONN
*I *1201:A4 I *D gf180mcu_fd_sc_mcu7t5v0__and4_1
*I *1200:ZN O *D gf180mcu_fd_sc_mcu7t5v0__nor4_1
*CAP
1 *1201:A4 0.000912598
2 *1200:ZN 0.000912598
3 *1201:A4 *1171:A2 0.00130981
4 *1201:A4 *1179:A1 2.35549e-05
5 *1201:A4 *1183:A2 0.00049896
6 *1201:A4 *226:34 0.000179365
7 *1201:A4 *252:12 4.19004e-05
8 *1201:A4 *289:10 1.71254e-05
9 *1177:A3 *1201:A4 0.000231442
10 *1184:A3 *1201:A4 4.47952e-05
11 *1187:A3 *1201:A4 0
12 *1200:A1 *1201:A4 2.99208e-05
13 *1206:A1 *1201:A4 0.000218532
*RES
1 *1200:ZN *1201:A4 27.54 
*END

*D_NET *144 0.00257058
*CONN
*I *1207:A2 I *D gf180mcu_fd_sc_mcu7t5v0__nand4_1
*I *1201:Z O *D gf180mcu_fd_sc_mcu7t5v0__and4_1
*CAP
1 *1207:A2 0.00075677
2 *1201:Z 0.00075677
3 *1207:A2 *1171:A2 0.000138299
4 *1207:A2 *1199:A2 6.77686e-05
5 *1207:A2 *226:30 1.06861e-05
6 *1187:A3 *1207:A2 0.000375423
7 *1202:A2 *1207:A2 1.39839e-05
8 *1203:A3 *1207:A2 7.15751e-05
9 *1206:A1 *1207:A2 0.000338693
10 *88:12 *1207:A2 4.06083e-05
*RES
1 *1201:Z *1207:A2 24.57 
*END

*D_NET *145 0.00121227
*CONN
*I *1203:A4 I *D gf180mcu_fd_sc_mcu7t5v0__and4_1
*I *1202:ZN O *D gf180mcu_fd_sc_mcu7t5v0__aoi22_1
*CAP
1 *1203:A4 0.000130922
2 *1202:ZN 0.000130922
3 *1203:A4 *1202:B1 8.49208e-05
4 *1203:A4 *250:23 0.000405595
5 *1203:A3 *1203:A4 0.000292238
6 *88:12 *1203:A4 0.00016767
*RES
1 *1202:ZN *1203:A4 11.25 
*END

*D_NET *146 0.000527038
*CONN
*I *1207:A3 I *D gf180mcu_fd_sc_mcu7t5v0__nand4_1
*I *1203:Z O *D gf180mcu_fd_sc_mcu7t5v0__and4_1
*CAP
1 *1207:A3 0.000129679
2 *1203:Z 0.000129679
3 *88:12 *1207:A3 0.00026768
*RES
1 *1203:Z *1207:A3 10.26 
*END

*D_NET *147 0.00231212
*CONN
*I *1206:A2 I *D gf180mcu_fd_sc_mcu7t5v0__nor3_1
*I *1204:ZN O *D gf180mcu_fd_sc_mcu7t5v0__oai22_1
*CAP
1 *1206:A2 6.65771e-05
2 *1204:ZN 6.65771e-05
3 *1206:A2 *1162:A1 1.86249e-05
4 *1206:A2 *1204:A1 9.22066e-05
5 *1206:A2 *251:16 5.00297e-05
6 *1200:A4 *1206:A2 0.00124463
7 *1202:B2 *1206:A2 0.000463466
8 *1204:A2 *1206:A2 0.000310002
*RES
1 *1204:ZN *1206:A2 21.15 
*END

*D_NET *148 0.000752543
*CONN
*I *1206:A3 I *D gf180mcu_fd_sc_mcu7t5v0__nor3_1
*I *1205:ZN O *D gf180mcu_fd_sc_mcu7t5v0__oai222_1
*CAP
1 *1206:A3 1.45123e-05
2 *1205:ZN 1.45123e-05
3 *1187:A3 *1206:A3 0.000176901
4 *1200:A4 *1206:A3 0.000546617
*RES
1 *1205:ZN *1206:A3 19.35 
*END

*D_NET *149 0.00137306
*CONN
*I *1207:A4 I *D gf180mcu_fd_sc_mcu7t5v0__nand4_1
*I *1206:ZN O *D gf180mcu_fd_sc_mcu7t5v0__nor3_1
*CAP
1 *1207:A4 0.000249673
2 *1206:ZN 0.000249673
3 *1207:A4 *235:46 0
4 *1207:A4 *250:23 0.000227863
5 *1181:A1 *1207:A4 0.000580984
6 *1202:B2 *1207:A4 7.58618e-06
7 *1203:A3 *1207:A4 3.75297e-05
8 *89:25 *1207:A4 1.97545e-05
*RES
1 *1206:ZN *1207:A4 20.52 
*END

*D_NET *150 0.00389818
*CONN
*I *1208:A2 I *D gf180mcu_fd_sc_mcu7t5v0__and2_1
*I *1217:A2 I *D gf180mcu_fd_sc_mcu7t5v0__nand3_1
*I *1207:ZN O *D gf180mcu_fd_sc_mcu7t5v0__nand4_1
*CAP
1 *1208:A2 0.00018822
2 *1217:A2 0
3 *1207:ZN 0.000541616
4 *150:8 0.000729835
5 *1208:A2 *1217:A3 4.24724e-05
6 *1208:A2 *153:8 3.0177e-06
7 *150:8 *235:46 0
8 *1187:A2 *150:8 6.85018e-05
9 *1207:A1 *150:8 0.0020884
10 *1217:A1 *1208:A2 0.000125101
11 *1217:A1 *150:8 8.56272e-05
12 *111:12 *1208:A2 1.37669e-05
13 *111:12 *150:8 1.16291e-05
*RES
1 *1207:ZN *150:8 15.57 
2 *150:8 *1217:A2 9 
3 *150:8 *1208:A2 10.35 
*END

*D_NET *151 0.00257876
*CONN
*I *1211:B I *D gf180mcu_fd_sc_mcu7t5v0__aoi21_1
*I *1238:A1 I *D gf180mcu_fd_sc_mcu7t5v0__and4_1
*I *1208:Z O *D gf180mcu_fd_sc_mcu7t5v0__and2_1
*CAP
1 *1211:B 0.000207111
2 *1238:A1 0.000181173
3 *1208:Z 9.67504e-05
4 *151:6 0.000485034
5 *1211:B *1210:A2 0.000255088
6 *1211:B *153:8 0.000409683
7 *1238:A1 *1148:I 0.000400528
8 *1238:A1 *281:102 0.000244336
9 *151:6 *1148:I 0.000164693
10 *151:6 *281:102 0.000100112
11 *1210:A1 *1211:B 3.42509e-05
*RES
1 *1208:Z *151:6 5.67 
2 *151:6 *1238:A1 7.2 
3 *151:6 *1211:B 16.47 
*END

*D_NET *152 0.00582696
*CONN
*I *1278:B1 I *D gf180mcu_fd_sc_mcu7t5v0__oai22_1
*I *1211:A2 I *D gf180mcu_fd_sc_mcu7t5v0__aoi21_1
*I *1210:A2 I *D gf180mcu_fd_sc_mcu7t5v0__nand2_1
*I *1209:Z O *D gf180mcu_fd_sc_mcu7t5v0__xor2_1
*CAP
1 *1278:B1 0.000147636
2 *1211:A2 0
3 *1210:A2 7.98421e-05
4 *1209:Z 0.000187959
5 *152:12 0.000380522
6 *152:8 0.000636275
7 *1278:B1 *1272:A1 7.45086e-05
8 *1278:B1 *197:16 9.29684e-05
9 *1278:B1 *240:14 1.07374e-05
10 *1278:B1 *294:10 0.000100966
11 *152:8 *197:16 5.38432e-05
12 *152:8 *294:10 0.000140012
13 *152:12 *283:54 0
14 *1168:A2 *152:12 0.000393144
15 *1210:A1 *1210:A2 0.000455757
16 *1211:B *1210:A2 0.000255088
17 *1269:A1 *152:12 0.000260704
18 *109:8 *152:12 0.000924839
19 *109:10 *1210:A2 0.000174506
20 *109:10 *152:12 0.00145765
*RES
1 *1209:Z *152:8 6.12 
2 *152:8 *152:12 10.53 
3 *152:12 *1210:A2 10.53 
4 *152:12 *1211:A2 9 
5 *152:8 *1278:B1 6.03 
*END

*D_NET *153 0.0039679
*CONN
*I *1238:A2 I *D gf180mcu_fd_sc_mcu7t5v0__and4_1
*I *1217:A3 I *D gf180mcu_fd_sc_mcu7t5v0__nand3_1
*I *1210:ZN O *D gf180mcu_fd_sc_mcu7t5v0__nand2_1
*CAP
1 *1238:A2 8.89053e-05
2 *1217:A3 0.000182166
3 *1210:ZN 0.000266554
4 *153:8 0.000537626
5 *1217:A3 *168:27 0.000365445
6 *1238:A2 *1148:I 0.00112956
7 *1238:A2 *168:12 5.97457e-06
8 *1238:A2 *168:27 4.57916e-05
9 *1208:A1 *1217:A3 3.01487e-05
10 *1208:A2 *1217:A3 4.24724e-05
11 *1208:A2 *153:8 3.0177e-06
12 *1211:B *153:8 0.000409683
13 *1236:A1 *1217:A3 7.70028e-05
14 *1236:A1 *1238:A2 0.000783552
*RES
1 *1210:ZN *153:8 11.79 
2 *153:8 *1217:A3 10.8 
3 *153:8 *1238:A2 11.97 
*END

*D_NET *154 0.0014006
*CONN
*I *1216:A2 I *D gf180mcu_fd_sc_mcu7t5v0__nor2_1
*I *1213:A2 I *D gf180mcu_fd_sc_mcu7t5v0__nor2_1
*I *1215:A3 I *D gf180mcu_fd_sc_mcu7t5v0__nor3_1
*I *1212:ZN O *D gf180mcu_fd_sc_mcu7t5v0__nand3_1
*CAP
1 *1216:A2 0.000154995
2 *1213:A2 0
3 *1215:A3 0.000112815
4 *1212:ZN 0.000239501
5 *154:12 0.000112815
6 *154:10 0.000394496
7 *1215:A3 *1266:A2 2.37622e-05
8 *1215:A3 *1271:I 8.69474e-05
9 *1216:A2 *1215:A2 4.49639e-05
10 *1216:A2 *1408:I 7.13936e-05
11 *1216:A2 *261:8 2.78496e-05
12 *154:10 *1215:A2 8.43025e-06
13 *154:10 *1266:A2 9.85004e-05
14 *154:10 *244:78 1.79237e-05
15 *1212:A1 *154:10 6.2083e-06
*RES
1 *1212:ZN *154:10 10.62 
2 *154:10 *154:12 4.5 
3 *154:12 *1215:A3 5.4 
4 *154:12 *1213:A2 4.5 
5 *154:10 *1216:A2 10.17 
*END

*D_NET *155 0.0131103
*CONN
*I *1365:I I *D gf180mcu_fd_sc_mcu7t5v0__dlyb_1
*I *1366:I I *D gf180mcu_fd_sc_mcu7t5v0__dlyb_1
*I *1217:ZN O *D gf180mcu_fd_sc_mcu7t5v0__nand3_1
*CAP
1 *1365:I 0.000948409
2 *1366:I 0.0029788
3 *1217:ZN 0
4 *155:4 0.00392721
5 *1365:I *1233:A2 0.000192035
6 *1365:I *1235:A2 0.000210501
7 *1365:I *1236:A2 0.000187452
8 *1365:I *1342:CLK 0.000362665
9 *1365:I *168:27 0.000168237
10 *1365:I *236:40 0
11 *1365:I *241:39 0
12 *1365:I *242:26 0.000250411
13 *1366:I *1240:A2 0.00038908
14 *1366:I *168:27 0.000479875
15 *1366:I *226:12 0
16 *1366:I *241:39 0.000124171
17 *1366:I *254:12 0.000113357
18 *1170:A1 *1366:I 9.04462e-05
19 *1186:A1 *1366:I 6.93035e-05
20 *1187:A2 *1366:I 0.000354738
21 *1187:A3 *1366:I 0.000223398
22 *1187:A4 *1366:I 0.00024161
23 *1200:A4 *1366:I 5.79792e-06
24 *1207:A1 *1366:I 9.3226e-06
25 *1236:A1 *1365:I 0.000436469
26 *1344:D *1365:I 0.000519893
27 *1357:I *1366:I 3.51488e-05
28 *26:10 *1366:I 0.000791947
*RES
1 *1217:ZN *155:4 4.5 
2 *155:4 *1366:I 39.33 
3 *155:4 *1365:I 15.03 
*END

*D_NET *156 0.000385284
*CONN
*I *1220:A2 I *D gf180mcu_fd_sc_mcu7t5v0__nor2_1
*I *1219:Z O *D gf180mcu_fd_sc_mcu7t5v0__xor2_1
*CAP
1 *1220:A2 0.000192642
2 *1219:Z 0.000192642
3 *1220:A2 *1164:A2 0
*RES
1 *1219:Z *1220:A2 10.26 
*END

*D_NET *157 0.00226626
*CONN
*I *1225:A2 I *D gf180mcu_fd_sc_mcu7t5v0__nor2_1
*I *1223:A2 I *D gf180mcu_fd_sc_mcu7t5v0__nor3_1
*I *1221:Z O *D gf180mcu_fd_sc_mcu7t5v0__and3_1
*CAP
1 *1225:A2 2.5e-07
2 *1223:A2 0
3 *1221:Z 3.34925e-05
4 *157:8 3.37425e-05
5 *1225:A2 *232:10 0.000583059
6 *1225:A2 *276:28 0.000437294
7 *1225:A2 *276:32 0.000182206
8 *157:8 *232:10 0.000503244
9 *157:8 *276:32 0.000492975
*RES
1 *1221:Z *157:8 10.35 
2 *157:8 *1223:A2 9 
3 *157:8 *1225:A2 10.53 
*END

*D_NET *158 0.00102916
*CONN
*I *1223:A3 I *D gf180mcu_fd_sc_mcu7t5v0__nor3_1
*I *1222:ZN O *D gf180mcu_fd_sc_mcu7t5v0__aoi21_1
*CAP
1 *1223:A3 0.000473032
2 *1222:ZN 0.000473032
3 *1223:A3 *1221:A2 1.67605e-05
4 *1223:A3 *276:32 6.6337e-05
*RES
1 *1222:ZN *1223:A3 20.7 
*END

*D_NET *159 0.00849816
*CONN
*I *1227:A2 I *D gf180mcu_fd_sc_mcu7t5v0__xor2_1
*I *1237:A3 I *D gf180mcu_fd_sc_mcu7t5v0__nand4_1
*I *1230:A1 I *D gf180mcu_fd_sc_mcu7t5v0__and2_1
*I *1231:A2 I *D gf180mcu_fd_sc_mcu7t5v0__aoi21_1
*I *1226:A2 I *D gf180mcu_fd_sc_mcu7t5v0__nor3_1
*I *1224:Z O *D gf180mcu_fd_sc_mcu7t5v0__and4_1
*CAP
1 *1227:A2 0
2 *1237:A3 0.000163687
3 *1230:A1 0
4 *1231:A2 0.000131845
5 *1226:A2 7.12078e-05
6 *1224:Z 9.42118e-05
7 *159:38 0.000341113
8 *159:27 0.00137542
9 *159:14 0.00158419
10 *159:8 0.000541041
11 *1226:A2 *1224:A4 0
12 *1226:A2 *1228:A1 0.00105306
13 *1226:A2 *1341:CLK 0.000853515
14 *1231:A2 *1172:A2 0.000636026
15 *1231:A2 *1232:A2 4.09029e-05
16 *1237:A3 *1172:A2 0.000354613
17 *1237:A3 *237:22 3.55118e-05
18 *1237:A3 *276:84 0
19 *159:8 *1224:A4 4.83522e-05
20 *159:8 *231:44 0
21 *159:14 *1188:A2 0
22 *159:14 *1224:A4 0.00032683
23 *159:14 *1228:A1 0
24 *159:14 *1228:A2 2.54079e-05
25 *159:14 *231:44 0
26 *159:27 *1188:A2 0
27 *159:27 *249:20 0
28 *159:38 *1172:A2 0.000783274
29 *159:38 *1232:A2 1.20136e-05
30 *159:38 *163:6 2.59366e-05
31 *159:38 *276:84 0
*RES
1 *1224:Z *159:8 5.4 
2 *159:8 *159:14 7.92 
3 *159:14 *1226:A2 11.79 
4 *159:14 *159:27 10.71 
5 *159:27 *1231:A2 6.21 
6 *159:27 *159:38 2.34 
7 *159:38 *1230:A1 4.5 
8 *159:38 *1237:A3 6.12 
9 *159:8 *1227:A2 4.5 
*END

*D_NET *160 0.000359588
*CONN
*I *1226:A3 I *D gf180mcu_fd_sc_mcu7t5v0__nor3_1
*I *1225:ZN O *D gf180mcu_fd_sc_mcu7t5v0__nor2_1
*CAP
1 *1226:A3 0.000124666
2 *1225:ZN 0.000124666
3 *1226:A3 *1224:A4 9.84908e-05
4 *1226:A3 *1341:CLK 1.17652e-05
*RES
1 *1225:ZN *1226:A3 10.08 
*END

*D_NET *161 0.000596082
*CONN
*I *1228:A2 I *D gf180mcu_fd_sc_mcu7t5v0__nor2_1
*I *1227:Z O *D gf180mcu_fd_sc_mcu7t5v0__xor2_1
*CAP
1 *1228:A2 0.000276344
2 *1227:Z 0.000276344
3 *1228:A2 *1188:A2 1.86887e-06
4 *1228:A2 *1228:A1 1.61174e-05
5 *1228:A2 *1341:CLK 0
6 *159:14 *1228:A2 2.54079e-05
*RES
1 *1227:Z *1228:A2 10.8 
*END

*D_NET *162 0.00116105
*CONN
*I *1237:A4 I *D gf180mcu_fd_sc_mcu7t5v0__nand4_1
*I *1230:A2 I *D gf180mcu_fd_sc_mcu7t5v0__and2_1
*I *1229:Z O *D gf180mcu_fd_sc_mcu7t5v0__and2_1
*CAP
1 *1237:A4 0.000101918
2 *1230:A2 0.000202104
3 *1229:Z 0
4 *162:4 0.000304022
5 *1237:A4 *1172:A1 0
6 *1237:A4 *1172:A2 0.00017952
7 *1237:A4 *249:20 0.00037349
*RES
1 *1229:Z *162:4 4.5 
2 *162:4 *1230:A2 14.49 
3 *162:4 *1237:A4 5.94 
*END

*D_NET *163 0.00341399
*CONN
*I *1233:A2 I *D gf180mcu_fd_sc_mcu7t5v0__nand2_1
*I *1234:A2 I *D gf180mcu_fd_sc_mcu7t5v0__xnor2_1
*I *1232:A2 I *D gf180mcu_fd_sc_mcu7t5v0__nor3_1
*I *1230:Z O *D gf180mcu_fd_sc_mcu7t5v0__and2_1
*CAP
1 *1233:A2 0.000285474
2 *1234:A2 0.00059065
3 *1232:A2 0.000489872
4 *1230:Z 0.000123873
5 *163:6 0.000918922
6 *1232:A2 *1232:A3 0
7 *1232:A2 *235:25 0
8 *1232:A2 *276:24 9.98816e-05
9 *1232:A2 *276:84 0.000233599
10 *1233:A2 *236:21 0.000179252
11 *1234:A2 *236:12 0.000109323
12 *163:6 *276:84 0.000112253
13 *1231:A2 *1232:A2 4.09029e-05
14 *1365:I *1233:A2 0.000192035
15 *159:38 *1232:A2 1.20136e-05
16 *159:38 *163:6 2.59366e-05
*RES
1 *1230:Z *163:6 5.67 
2 *163:6 *1232:A2 8.64 
3 *163:6 *1234:A2 15.93 
4 *1234:A2 *1233:A2 11.79 
*END

*D_NET *164 0.000632041
*CONN
*I *1232:A3 I *D gf180mcu_fd_sc_mcu7t5v0__nor3_1
*I *1231:ZN O *D gf180mcu_fd_sc_mcu7t5v0__aoi21_1
*CAP
1 *1232:A3 0.000161399
2 *1231:ZN 0.000161399
3 *1232:A3 *1172:A2 0.000231436
4 *1232:A3 *235:6 4.22964e-05
5 *1232:A3 *235:25 3.55118e-05
6 *1232:A3 *276:24 0
7 *1232:A2 *1232:A3 0
*RES
1 *1231:ZN *1232:A3 10.44 
*END

*D_NET *165 0.000601113
*CONN
*I *1236:A2 I *D gf180mcu_fd_sc_mcu7t5v0__nand2_1
*I *1233:ZN O *D gf180mcu_fd_sc_mcu7t5v0__nand2_1
*CAP
1 *1236:A2 0.000189075
2 *1233:ZN 0.000189075
3 *1236:A2 *236:40 0
4 *1236:A1 *1236:A2 3.55118e-05
5 *1365:I *1236:A2 0.000187452
*RES
1 *1233:ZN *1236:A2 10.35 
*END

*D_NET *166 0.000928525
*CONN
*I *1235:A2 I *D gf180mcu_fd_sc_mcu7t5v0__nor2_1
*I *1234:ZN O *D gf180mcu_fd_sc_mcu7t5v0__xnor2_1
*CAP
1 *1235:A2 0.000166293
2 *1234:ZN 0.000166293
3 *1235:A2 *1343:CLK 1.19491e-05
4 *1343:D *1235:A2 0.00037349
5 *1365:I *1235:A2 0.000210501
*RES
1 *1234:ZN *1235:A2 11.07 
*END

*D_NET *167 0.000386861
*CONN
*I *1238:A3 I *D gf180mcu_fd_sc_mcu7t5v0__and4_1
*I *1236:ZN O *D gf180mcu_fd_sc_mcu7t5v0__nand2_1
*CAP
1 *1238:A3 0.00015271
2 *1236:ZN 0.00015271
3 *1238:A3 *168:12 3.03939e-05
4 *1238:A3 *237:14 1.85284e-05
5 *1236:A1 *1238:A3 3.2519e-05
*RES
1 *1236:ZN *1238:A3 19.17 
*END

*D_NET *168 0.0186462
*CONN
*I *1240:A2 I *D gf180mcu_fd_sc_mcu7t5v0__xor2_1
*I *1251:A1 I *D gf180mcu_fd_sc_mcu7t5v0__nor2_1
*I *1257:A1 I *D gf180mcu_fd_sc_mcu7t5v0__nor3_1
*I *1247:A1 I *D gf180mcu_fd_sc_mcu7t5v0__nor2_1
*I *1239:A2 I *D gf180mcu_fd_sc_mcu7t5v0__nor2_1
*I *1243:A3 I *D gf180mcu_fd_sc_mcu7t5v0__nor3_1
*I *1238:A4 I *D gf180mcu_fd_sc_mcu7t5v0__and4_1
*I *1237:ZN O *D gf180mcu_fd_sc_mcu7t5v0__nand4_1
*CAP
1 *1240:A2 0.000452936
2 *1251:A1 0.000248097
3 *1257:A1 7.83194e-05
4 *1247:A1 0
5 *1239:A2 0
6 *1243:A3 0
7 *1238:A4 0
8 *1237:ZN 0.000464162
9 *168:66 0.000798914
10 *168:55 0.000924875
11 *168:42 0.000662552
12 *168:35 0.000747016
13 *168:27 0.00219682
14 *168:12 0.00167121
15 *1240:A2 *1170:A2 9.20679e-05
16 *1240:A2 *254:12 0.000862684
17 *1251:A1 *1251:A2 2.86145e-05
18 *1251:A1 *1256:A1 4.80547e-05
19 *1251:A1 *1257:A3 0.000346684
20 *1251:A1 *182:12 0
21 *1251:A1 *226:22 5.47615e-05
22 *1251:A1 *226:30 0.000427039
23 *1251:A1 *227:6 1.56862e-05
24 *1257:A1 *1257:A2 7.77106e-05
25 *1257:A1 *225:24 1.23523e-05
26 *168:12 *1148:I 1.38609e-05
27 *168:12 *1233:A1 0.000393153
28 *168:12 *1237:A1 0.000601522
29 *168:12 *236:23 0.00023968
30 *168:12 *237:14 0.000173848
31 *168:12 *242:26 0.000354738
32 *168:27 *1170:A2 0.000712846
33 *168:27 *1185:A1 1.19491e-05
34 *168:27 *1195:A2 0.00023506
35 *168:27 *242:26 0.00039023
36 *168:27 *254:12 2.36914e-05
37 *168:35 *239:10 0.00149982
38 *168:35 *239:12 0.000587171
39 *168:42 *1363:I 2.40587e-06
40 *168:42 *243:71 2.18208e-05
41 *168:55 *1242:A2 5.97457e-06
42 *168:55 *1245:A2 0
43 *168:55 *243:71 0
44 *168:66 *1245:A2 0
45 *168:66 *1246:A2 9.53132e-05
46 *168:66 *1257:A2 0.000135666
47 *168:66 *225:16 1.56674e-05
48 *168:66 *225:18 1.44867e-05
49 *168:66 *225:24 6.17613e-06
50 *168:66 *243:71 0
51 *1170:A1 *168:27 1.39839e-05
52 *1185:A2 *168:27 0.00032331
53 *1186:A2 *168:27 4.83522e-05
54 *1187:A4 *168:27 0.000223162
55 *1198:B2 *168:35 1.62669e-05
56 *1198:B2 *168:42 9.3226e-06
57 *1200:A4 *168:27 0.000365454
58 *1208:A1 *168:27 5.30751e-05
59 *1217:A3 *168:27 0.000365445
60 *1236:A1 *168:12 0
61 *1236:A1 *168:27 0.000146312
62 *1238:A2 *168:12 5.97457e-06
63 *1238:A2 *168:27 4.57916e-05
64 *1238:A3 *168:12 3.03939e-05
65 *1239:A1 *168:42 0.000108777
66 *1243:A1 *168:42 3.12451e-05
67 *1365:I *168:27 0.000168237
68 *1366:I *1240:A2 0.00038908
69 *1366:I *168:27 0.000479875
70 *130:8 *168:27 7.65425e-05
*RES
1 *1237:ZN *168:12 18.54 
2 *168:12 *1238:A4 4.5 
3 *168:12 *168:27 14.49 
4 *168:27 *168:35 14.76 
5 *168:35 *1243:A3 4.5 
6 *168:35 *168:42 1.53 
7 *168:42 *1239:A2 4.5 
8 *168:42 *168:55 3.24 
9 *168:55 *1247:A1 4.5 
10 *168:55 *168:66 8.46 
11 *168:66 *1257:A1 9.81 
12 *168:66 *1251:A1 11.61 
13 *168:27 *1240:A2 10.71 
*END

*D_NET *169 0.000161663
*CONN
*I *1242:A2 I *D gf180mcu_fd_sc_mcu7t5v0__nor2_1
*I *1239:ZN O *D gf180mcu_fd_sc_mcu7t5v0__nor2_1
*CAP
1 *1242:A2 7.78441e-05
2 *1239:ZN 7.78441e-05
3 *1243:A1 *1242:A2 0
4 *168:55 *1242:A2 5.97457e-06
*RES
1 *1239:ZN *1242:A2 9.63 
*END

*D_NET *170 0.000620519
*CONN
*I *1241:A2 I *D gf180mcu_fd_sc_mcu7t5v0__nor2_1
*I *1240:Z O *D gf180mcu_fd_sc_mcu7t5v0__xor2_1
*CAP
1 *1241:A2 8.46759e-05
2 *1240:Z 8.46759e-05
3 *1241:A2 *1345:CLK 0.000151427
4 *1241:A2 *254:12 5.30888e-06
5 *1345:D *1241:A2 0.000294431
*RES
1 *1240:Z *1241:A2 10.26 
*END

*D_NET *171 0.000287485
*CONN
*I *1244:A2 I *D gf180mcu_fd_sc_mcu7t5v0__nor3_1
*I *1242:ZN O *D gf180mcu_fd_sc_mcu7t5v0__nor2_1
*CAP
1 *1244:A2 0.000126878
2 *1242:ZN 0.000126878
3 *1244:A2 *172:14 3.37298e-05
4 *1244:A2 *243:56 0
*RES
1 *1242:ZN *1244:A2 18.99 
*END

*D_NET *172 0.00218353
*CONN
*I *1245:A2 I *D gf180mcu_fd_sc_mcu7t5v0__nor2_1
*I *1244:A3 I *D gf180mcu_fd_sc_mcu7t5v0__nor3_1
*I *1243:ZN O *D gf180mcu_fd_sc_mcu7t5v0__nor3_1
*CAP
1 *1245:A2 0.000459507
2 *1244:A3 0
3 *1243:ZN 0.000290375
4 *172:14 0.000749882
5 *1245:A2 *175:8 0
6 *1245:A2 *276:84 4.15457e-05
7 *1245:A2 *276:93 0.000218053
8 *172:14 *1242:A1 5.00145e-05
9 *172:14 *243:56 0.000189328
10 *172:14 *276:84 7.5133e-05
11 *1239:A1 *172:14 6.55454e-05
12 *1243:A1 *172:14 1.0415e-05
13 *1244:A2 *172:14 3.37298e-05
14 *168:55 *1245:A2 0
15 *168:66 *1245:A2 0
*RES
1 *1243:ZN *172:14 16.29 
2 *172:14 *1244:A3 4.5 
3 *172:14 *1245:A2 8.01 
*END

*D_NET *173 0.000409768
*CONN
*I *1248:A2 I *D gf180mcu_fd_sc_mcu7t5v0__nor3_1
*I *1245:ZN O *D gf180mcu_fd_sc_mcu7t5v0__nor2_1
*CAP
1 *1248:A2 0.000128034
2 *1245:ZN 0.000128034
3 *1248:A2 *225:10 9.98816e-05
4 *1248:A2 *276:93 5.3819e-05
*RES
1 *1245:ZN *1248:A2 10.26 
*END

*D_NET *174 0.000366817
*CONN
*I *1247:A2 I *D gf180mcu_fd_sc_mcu7t5v0__nor2_1
*I *1246:ZN O *D gf180mcu_fd_sc_mcu7t5v0__nand3_1
*CAP
1 *1247:A2 0.000103539
2 *1246:ZN 0.000103539
3 *1247:A2 *1246:A2 9.04462e-05
4 *1247:A2 *175:8 6.92926e-05
5 *1247:A2 *243:71 0
*RES
1 *1246:ZN *1247:A2 9.81 
*END

*D_NET *175 0.00231572
*CONN
*I *1248:A3 I *D gf180mcu_fd_sc_mcu7t5v0__nor3_1
*I *1249:A2 I *D gf180mcu_fd_sc_mcu7t5v0__nor2_1
*I *1247:ZN O *D gf180mcu_fd_sc_mcu7t5v0__nor2_1
*CAP
1 *1248:A3 0.000139016
2 *1249:A2 0.000372434
3 *1247:ZN 0.00035862
4 *175:8 0.000870069
5 *1248:A3 *1348:RN 0
6 *1248:A3 *284:67 0
7 *1249:A2 *1348:RN 0
8 *1249:A2 *225:10 0
9 *1249:A2 *226:22 0.000327505
10 *1249:A2 *238:35 0
11 *1249:A2 *284:67 0
12 *175:8 *1246:A2 5.23429e-06
13 *175:8 *225:10 0.000107318
14 *175:8 *225:16 3.73774e-06
15 *175:8 *226:22 0
16 *175:8 *238:20 3.12451e-05
17 *175:8 *238:35 3.12451e-05
18 *1245:A2 *175:8 0
19 *1247:A2 *175:8 6.92926e-05
*RES
1 *1247:ZN *175:8 11.61 
2 *175:8 *1249:A2 12.06 
3 *175:8 *1248:A3 9.99 
*END

*D_NET *176 0.000833805
*CONN
*I *1252:A2 I *D gf180mcu_fd_sc_mcu7t5v0__nor3_1
*I *1249:ZN O *D gf180mcu_fd_sc_mcu7t5v0__nor2_1
*CAP
1 *1252:A2 0.000327122
2 *1249:ZN 0.000327122
3 *1252:A2 *277:8 5.06377e-06
4 *1252:A2 *277:18 0.000174497
*RES
1 *1249:ZN *1252:A2 20.16 
*END

*D_NET *177 0.00161941
*CONN
*I *1251:A2 I *D gf180mcu_fd_sc_mcu7t5v0__nor2_1
*I *1257:A2 I *D gf180mcu_fd_sc_mcu7t5v0__nor3_1
*I *1250:ZN O *D gf180mcu_fd_sc_mcu7t5v0__nand4_1
*CAP
1 *1251:A2 0.00018389
2 *1257:A2 0.000178078
3 *1250:ZN 0
4 *177:4 0.000361968
5 *1251:A2 *1250:A2 5.22596e-06
6 *1251:A2 *1250:A3 9.04462e-05
7 *1251:A2 *226:22 0.000278756
8 *1251:A2 *226:30 9.81455e-05
9 *1251:A2 *238:35 9.90362e-06
10 *1251:A2 *238:37 3.73774e-06
11 *1251:A2 *239:33 7.55765e-06
12 *1257:A2 *225:24 7.89386e-05
13 *1257:A2 *226:30 4.78286e-05
14 *1257:A2 *239:33 3.29477e-05
15 *1251:A1 *1251:A2 2.86145e-05
16 *1257:A1 *1257:A2 7.77106e-05
17 *168:66 *1257:A2 0.000135666
*RES
1 *1250:ZN *177:4 4.5 
2 *177:4 *1257:A2 15.3 
3 *177:4 *1251:A2 6.3 
*END

*D_NET *178 0.00388978
*CONN
*I *1252:A3 I *D gf180mcu_fd_sc_mcu7t5v0__nor3_1
*I *1253:A2 I *D gf180mcu_fd_sc_mcu7t5v0__xnor2_1
*I *1255:A2 I *D gf180mcu_fd_sc_mcu7t5v0__aoi21_1
*I *1251:ZN O *D gf180mcu_fd_sc_mcu7t5v0__nor2_1
*CAP
1 *1252:A3 0.000306402
2 *1253:A2 0.00024563
3 *1255:A2 0.000162034
4 *1251:ZN 0
5 *178:8 0.000694968
6 *178:4 0.000593706
7 *1252:A3 *227:6 0.000146698
8 *1252:A3 *277:18 1.56862e-05
9 *1253:A2 *1253:A1 0.000826718
10 *1253:A2 *1254:A1 4.34467e-06
11 *1255:A2 *182:12 5.18358e-05
12 *1255:A2 *227:21 2.70125e-05
13 *1255:A2 *284:75 0
14 *178:8 *182:12 0.000384864
15 *178:8 *227:21 0.000429878
16 *178:8 *284:67 0
*RES
1 *1251:ZN *178:4 4.5 
2 *178:4 *178:8 8.91 
3 *178:8 *1255:A2 10.08 
4 *178:8 *1253:A2 11.43 
5 *178:4 *1252:A3 6.75 
*END

*D_NET *179 0.000776562
*CONN
*I *1254:A2 I *D gf180mcu_fd_sc_mcu7t5v0__nor2_1
*I *1253:ZN O *D gf180mcu_fd_sc_mcu7t5v0__xnor2_1
*CAP
1 *1254:A2 0.000231329
2 *1253:ZN 0.000231329
3 *1254:A2 *1254:A1 0.000292429
4 *1349:D *1254:A2 2.14748e-05
*RES
1 *1253:ZN *1254:A2 11.07 
*END

*D_NET *180 0.000615291
*CONN
*I *1258:A2 I *D gf180mcu_fd_sc_mcu7t5v0__nor3_1
*I *1255:ZN O *D gf180mcu_fd_sc_mcu7t5v0__aoi21_1
*CAP
1 *1258:A2 0.000225597
2 *1255:ZN 0.000225597
3 *1258:A2 *1253:A1 0.000116278
4 *1350:D *1258:A2 4.78178e-05
*RES
1 *1255:ZN *1258:A2 10.71 
*END

*D_NET *181 0.000578598
*CONN
*I *1257:A3 I *D gf180mcu_fd_sc_mcu7t5v0__nor3_1
*I *1256:ZN O *D gf180mcu_fd_sc_mcu7t5v0__nand2_1
*CAP
1 *1257:A3 9.52258e-05
2 *1256:ZN 9.52258e-05
3 *1257:A3 *1256:A2 3.24207e-05
4 *1257:A3 *182:12 9.04226e-06
5 *1251:A1 *1257:A3 0.000346684
*RES
1 *1256:ZN *1257:A3 9.99 
*END

*D_NET *182 0.00619782
*CONN
*I *1258:A3 I *D gf180mcu_fd_sc_mcu7t5v0__nor3_1
*I *1259:A2 I *D gf180mcu_fd_sc_mcu7t5v0__nor2_1
*I *1260:A2 I *D gf180mcu_fd_sc_mcu7t5v0__and2_1
*I *1257:ZN O *D gf180mcu_fd_sc_mcu7t5v0__nor3_1
*CAP
1 *1258:A3 0
2 *1259:A2 0.000181841
3 *1260:A2 0.000183161
4 *1257:ZN 0.000946838
5 *182:14 0.00083252
6 *182:12 0.00141436
7 *1259:A2 *1259:A1 0.000183662
8 *1259:A2 *1263:C 1.19491e-05
9 *1259:A2 *229:12 3.12451e-05
10 *1260:A2 *1261:A3 0.000231442
11 *1260:A2 *1262:A2 3.55118e-05
12 *1260:A2 *1263:C 0.000223398
13 *1260:A2 *229:10 0.000166798
14 *1260:A2 *277:20 0
15 *182:12 *1256:A1 6.1883e-05
16 *182:12 *1256:A2 5.55187e-05
17 *182:12 *1349:RN 8.03445e-05
18 *182:12 *227:6 8.63363e-05
19 *182:12 *277:18 0
20 *182:12 *284:75 0
21 *182:14 *229:10 0.00102527
22 *182:14 *277:18 0
23 *182:14 *277:20 0
24 *182:14 *284:75 0
25 *1251:A1 *182:12 0
26 *1255:A2 *182:12 5.18358e-05
27 *1257:A3 *182:12 9.04226e-06
28 *178:8 *182:12 0.000384864
*RES
1 *1257:ZN *182:12 16.65 
2 *182:12 *182:14 3.87 
3 *182:14 *1260:A2 10.8 
4 *182:14 *1259:A2 10.53 
5 *182:12 *1258:A3 9 
*END

*D_NET *183 0.000547584
*CONN
*I *1261:A2 I *D gf180mcu_fd_sc_mcu7t5v0__nor3_1
*I *1259:ZN O *D gf180mcu_fd_sc_mcu7t5v0__nor2_1
*CAP
1 *1261:A2 6.79836e-05
2 *1259:ZN 6.79836e-05
3 *1261:A2 *1261:A1 0.00023711
4 *1261:A2 *277:20 0.000174506
*RES
1 *1259:ZN *1261:A2 18.99 
*END

*D_NET *184 0.00251629
*CONN
*I *1261:A3 I *D gf180mcu_fd_sc_mcu7t5v0__nor3_1
*I *1262:A2 I *D gf180mcu_fd_sc_mcu7t5v0__nor2_1
*I *1263:A2 I *D gf180mcu_fd_sc_mcu7t5v0__aoi211_1
*I *1260:Z O *D gf180mcu_fd_sc_mcu7t5v0__and2_1
*CAP
1 *1261:A3 0.000188884
2 *1262:A2 7.84916e-05
3 *1263:A2 0.000344898
4 *1260:Z 0
5 *184:15 0.00031911
6 *184:4 0.000396633
7 *1261:A3 *1263:C 0.000264239
8 *1261:A3 *1351:CLK 0
9 *1262:A2 *1263:C 0.000240557
10 *1263:A2 *1262:A1 0.00012298
11 *1263:A2 *1263:C 0
12 *1263:A2 *1351:CLK 0.000123639
13 *1263:A2 *1352:CLK 9.34006e-05
14 *1263:A2 *230:12 1.07374e-05
15 *1260:A2 *1261:A3 0.000231442
16 *1260:A2 *1262:A2 3.55118e-05
17 *1351:D *1261:A3 6.57682e-05
*RES
1 *1260:Z *184:4 4.5 
2 *184:4 *1263:A2 8.1 
3 *184:4 *184:15 0.45 
4 *184:15 *1262:A2 6.3 
5 *184:15 *1261:A3 6.75 
*END

*D_NET *185 0.00046635
*CONN
*I *1263:B I *D gf180mcu_fd_sc_mcu7t5v0__aoi211_1
*I *1262:ZN O *D gf180mcu_fd_sc_mcu7t5v0__nor2_1
*CAP
1 *1263:B 4.27387e-05
2 *1262:ZN 4.27387e-05
3 *1263:B *1262:A1 0.000302466
4 *1263:B *1263:C 7.84068e-05
*RES
1 *1262:ZN *1263:B 9.81 
*END

*D_NET *186 0.00374035
*CONN
*I *1320:A1 I *D gf180mcu_fd_sc_mcu7t5v0__oai21_1
*I *1269:A2 I *D gf180mcu_fd_sc_mcu7t5v0__nor3_1
*I *1267:Z O *D gf180mcu_fd_sc_mcu7t5v0__xor2_1
*CAP
1 *1320:A1 5.13513e-05
2 *1269:A2 0.000415797
3 *1267:Z 0.000141498
4 *186:10 0.000608646
5 *1269:A2 *1266:A2 5.22939e-05
6 *1269:A2 *1269:A3 0.000294421
7 *1269:A2 *1319:A3 0.000491443
8 *1269:A2 *1320:B 0.000169515
9 *1320:A1 *253:12 0.000309993
10 *1320:A1 *295:12 0
11 *186:10 *244:67 0.000174497
12 *186:10 *244:107 0.000109541
13 *186:10 *253:12 0.000437789
14 *186:10 *295:12 0
15 *186:10 *295:23 0.000118113
16 *1356:D *1269:A2 0.000365454
*RES
1 *1267:Z *186:10 10.98 
2 *186:10 *1269:A2 13.68 
3 *186:10 *1320:A1 9.81 
*END

*D_NET *187 0.00119131
*CONN
*I *1269:A3 I *D gf180mcu_fd_sc_mcu7t5v0__nor3_1
*I *1268:ZN O *D gf180mcu_fd_sc_mcu7t5v0__nand2_1
*CAP
1 *1269:A3 0.000203795
2 *1268:ZN 0.000203795
3 *1269:A3 *1266:A2 0.000119182
4 *1269:A3 *244:78 2.31089e-05
5 *1266:A1 *1269:A3 0.000209401
6 *1268:A1 *1269:A3 0.000106536
7 *1269:A1 *1269:A3 3.10728e-05
8 *1269:A2 *1269:A3 0.000294421
*RES
1 *1268:ZN *1269:A3 20.43 
*END

*D_NET *188 0.000580231
*CONN
*I *1270:A2 I *D gf180mcu_fd_sc_mcu7t5v0__oai21_1
*I *1269:ZN O *D gf180mcu_fd_sc_mcu7t5v0__nor3_1
*CAP
1 *1270:A2 0.00022515
2 *1269:ZN 0.00022515
3 *1270:A2 *1266:A2 0.000119192
4 *1270:A2 *1271:I 1.07374e-05
5 *1270:A2 *284:31 0
*RES
1 *1269:ZN *1270:A2 10.8 
*END

*D_NET *189 0.00222411
*CONN
*I *1271:I I *D gf180mcu_fd_sc_mcu7t5v0__clkinv_1
*I *1270:ZN O *D gf180mcu_fd_sc_mcu7t5v0__oai21_1
*CAP
1 *1271:I 0.000458302
2 *1270:ZN 0.000458302
3 *1271:I *1266:A2 0
4 *1271:I *1270:A1 0.000429821
5 *1271:I *1398:I 0.000143853
6 *1271:I *291:14 0.000106536
7 *1271:I *291:21 0.000529615
8 *1215:A3 *1271:I 8.69474e-05
9 *1270:A2 *1271:I 1.07374e-05
*RES
1 *1270:ZN *1271:I 14.04 
*END

*D_NET *190 0.00125138
*CONN
*I *1282:B I *D gf180mcu_fd_sc_mcu7t5v0__aoi21_1
*I *1272:ZN O *D gf180mcu_fd_sc_mcu7t5v0__nor2_1
*CAP
1 *1282:B 0.000211379
2 *1272:ZN 0.000211379
3 *1282:B *197:16 0
4 *1282:B *197:24 3.55118e-05
5 *42:61 *1282:B 2.93836e-05
6 *110:25 *1282:B 0.00076373
*RES
1 *1272:ZN *1282:B 11.25 
*END

*D_NET *191 0.00101414
*CONN
*I *1275:A2 I *D gf180mcu_fd_sc_mcu7t5v0__nand3_1
*I *1273:ZN O *D gf180mcu_fd_sc_mcu7t5v0__xnor2_1
*CAP
1 *1275:A2 0.000186113
2 *1273:ZN 0.000186113
3 *1275:A2 *1274:A2 0.000291668
4 *1275:A2 *1313:A2 7.25305e-05
5 *1275:A2 *193:10 0.000192093
6 *1275:A2 *282:23 0
7 *1275:A2 *292:41 8.56272e-05
*RES
1 *1273:ZN *1275:A2 20.07 
*END

*D_NET *192 0.000135883
*CONN
*I *1275:A3 I *D gf180mcu_fd_sc_mcu7t5v0__nand3_1
*I *1274:ZN O *D gf180mcu_fd_sc_mcu7t5v0__xnor2_1
*CAP
1 *1275:A3 3.83967e-05
2 *1274:ZN 3.83967e-05
3 *1275:A3 *1313:A2 5.90896e-05
*RES
1 *1274:ZN *1275:A3 9.45 
*END

*D_NET *193 0.00395662
*CONN
*I *1277:A1 I *D gf180mcu_fd_sc_mcu7t5v0__and2_1
*I *1313:A1 I *D gf180mcu_fd_sc_mcu7t5v0__aoi21_1
*I *1275:ZN O *D gf180mcu_fd_sc_mcu7t5v0__nand3_1
*CAP
1 *1277:A1 0.000659059
2 *1313:A1 0.00022195
3 *1275:ZN 0.000253912
4 *193:10 0.00113492
5 *1277:A1 *1273:A1 0.000365445
6 *1277:A1 *1274:A2 1.14516e-05
7 *1277:A1 *1370:I 1.56779e-05
8 *1313:A1 *1273:A1 6.99911e-06
9 *1313:A1 *1274:A1 8.36919e-05
10 *1313:A1 *1274:A2 0.000169524
11 *1313:A1 *1313:A2 0.000263192
12 *1313:A1 *245:6 9.98816e-05
13 *193:10 *1274:A2 8.68398e-06
14 *193:10 *1313:A2 3.84632e-05
15 *193:10 *282:59 0
16 *1273:A2 *193:10 1.36885e-05
17 *1275:A1 *193:10 5.36871e-05
18 *1275:A2 *193:10 0.000192093
19 *1296:A1 *1277:A1 0.000353562
20 *65:12 *193:10 1.07374e-05
*RES
1 *1275:ZN *193:10 10.98 
2 *193:10 *1313:A1 11.79 
3 *193:10 *1277:A1 14.58 
*END

*D_NET *194 0.0055594
*CONN
*I *1277:A2 I *D gf180mcu_fd_sc_mcu7t5v0__and2_1
*I *1290:A2 I *D gf180mcu_fd_sc_mcu7t5v0__nand2_1
*I *1280:A2 I *D gf180mcu_fd_sc_mcu7t5v0__nand2_1
*I *1276:ZN O *D gf180mcu_fd_sc_mcu7t5v0__nor3_1
*CAP
1 *1277:A2 0.000332899
2 *1290:A2 0
3 *1280:A2 0.000312861
4 *1276:ZN 0.000122062
5 *194:19 0.00130633
6 *194:10 0.00140836
7 *1277:A2 *1279:A1 7.71476e-06
8 *1277:A2 *205:10 7.32987e-05
9 *1280:A2 *262:14 0.000198568
10 *194:19 *1141:I 9.04539e-05
11 *194:19 *1165:A2 4.8152e-06
12 *194:19 *1166:A2 0
13 *194:19 *1278:A1 0.000400744
14 *194:19 *197:16 0
15 *194:19 *205:10 1.07374e-05
16 *194:19 *262:14 0.000214896
17 *1159:A2 *194:19 0
18 *1165:A1 *1277:A2 0.000772564
19 *1165:A1 *194:19 2.26729e-05
20 *1209:A1 *194:19 0.000207151
21 *1278:A2 *194:19 2.13487e-05
22 *1296:A1 *1277:A2 3.08015e-05
23 *41:12 *1280:A2 0
24 *41:12 *194:19 0
25 *41:16 *194:10 2.11238e-05
26 *41:55 *194:10 0
*RES
1 *1276:ZN *194:10 14.31 
2 *194:10 *1280:A2 6.75 
3 *194:10 *194:19 8.01 
4 *194:19 *1290:A2 4.5 
5 *194:19 *1277:A2 8.1 
*END

*D_NET *195 0.00169032
*CONN
*I *1279:A1 I *D gf180mcu_fd_sc_mcu7t5v0__nor2_1
*I *1310:A2 I *D gf180mcu_fd_sc_mcu7t5v0__and2_1
*I *1277:Z O *D gf180mcu_fd_sc_mcu7t5v0__and2_1
*CAP
1 *1279:A1 0.000217843
2 *1310:A2 5.37621e-05
3 *1277:Z 2.01596e-05
4 *195:8 0.000291765
5 *1279:A1 *1310:A1 0.000414586
6 *1310:A2 *1311:I1 0.000309993
7 *1310:A2 *253:12 5.28753e-05
8 *195:8 *1311:I1 0.000174506
9 *195:8 *253:12 2.61472e-05
10 *1165:A1 *1279:A1 0.000120971
11 *1277:A2 *1279:A1 7.71476e-06
*RES
1 *1277:Z *195:8 9.45 
2 *195:8 *1310:A2 9.81 
3 *195:8 *1279:A1 11.61 
*END

*D_NET *196 0.000447212
*CONN
*I *1279:A2 I *D gf180mcu_fd_sc_mcu7t5v0__nor2_1
*I *1278:ZN O *D gf180mcu_fd_sc_mcu7t5v0__oai22_1
*CAP
1 *1279:A2 0.000143141
2 *1278:ZN 0.000143141
3 *1279:A2 *1165:A2 4.34467e-06
4 *1279:A2 *197:16 0.000130633
5 *1279:A2 *240:14 2.59527e-05
*RES
1 *1278:ZN *1279:A2 10.08 
*END

*D_NET *197 0.00975668
*CONN
*I *1282:A1 I *D gf180mcu_fd_sc_mcu7t5v0__aoi21_1
*I *1289:A1 I *D gf180mcu_fd_sc_mcu7t5v0__aoi21_1
*I *1288:A2 I *D gf180mcu_fd_sc_mcu7t5v0__oai21_1
*I *1285:S I *D gf180mcu_fd_sc_mcu7t5v0__mux2_2
*I *1279:ZN O *D gf180mcu_fd_sc_mcu7t5v0__nor2_1
*CAP
1 *1282:A1 0
2 *1289:A1 0
3 *1288:A2 0.000126458
4 *1285:S 0.000117512
5 *1279:ZN 0.00127312
6 *197:39 0.000814708
7 *197:24 0.00105117
8 *197:16 0.00151853
9 *1285:S *1283:A2 7.07125e-05
10 *1285:S *1285:I1 0.000152165
11 *1288:A2 *1289:A2 1.07374e-05
12 *1288:A2 *1289:B 0.000241116
13 *1288:A2 *1323:CLK 0
14 *1288:A2 *244:80 0
15 *197:16 *1165:A2 0.000112936
16 *197:16 *1272:A1 3.53416e-05
17 *197:16 *1369:I 9.53585e-05
18 *197:16 *240:14 0
19 *197:16 *294:10 5.7182e-05
20 *197:24 *1283:A2 0.000483225
21 *197:24 *1284:B 0
22 *197:24 *1285:I1 6.76694e-05
23 *197:39 *1280:A1 5.90118e-05
24 *197:39 *1281:A1 4.32329e-05
25 *197:39 *1283:A2 9.39061e-05
26 *197:39 *1284:B 0
27 *197:39 *1289:A2 0.000155192
28 *197:39 *258:8 4.01071e-05
29 *1159:A1 *197:16 1.56862e-05
30 *1159:A2 *197:16 6.88878e-05
31 *1209:A1 *197:16 3.37946e-05
32 *1209:A2 *197:16 0.000336058
33 *1278:B1 *197:16 9.29684e-05
34 *1279:A2 *197:16 0.000130633
35 *1282:B *197:16 0
36 *1282:B *197:24 3.55118e-05
37 *1285:I0 *1285:S 0.000129056
38 *1285:I0 *197:24 2.31089e-05
39 *1285:I0 *197:39 8.26533e-06
40 *1288:A1 *1288:A2 0.000352278
41 *41:12 *197:16 0.00111457
42 *42:14 *197:39 0.000101822
43 *42:61 *197:24 8.17346e-05
44 *43:14 *1288:A2 2.14748e-05
45 *43:14 *197:39 0.000144454
46 *110:10 *197:16 0.000393144
47 *110:25 *197:16 0
48 *152:8 *197:16 5.38432e-05
49 *194:19 *197:16 0
*RES
1 *1279:ZN *197:16 24.84 
2 *197:16 *197:24 2.88 
3 *197:24 *1285:S 6.03 
4 *197:24 *197:39 15.3 
5 *197:39 *1288:A2 6.3 
6 *197:39 *1289:A1 4.5 
7 *197:16 *1282:A1 4.5 
*END

*D_NET *198 0.00144233
*CONN
*I *1281:A2 I *D gf180mcu_fd_sc_mcu7t5v0__nand2_1
*I *1284:B I *D gf180mcu_fd_sc_mcu7t5v0__oai21_1
*I *1280:ZN O *D gf180mcu_fd_sc_mcu7t5v0__nand2_1
*CAP
1 *1281:A2 0
2 *1284:B 0.000199631
3 *1280:ZN 0.000103469
4 *198:6 0.0003031
5 *1284:B *1280:A1 7.90911e-06
6 *1284:B *1281:A1 0.000315591
7 *1284:B *1369:I 0.00028581
8 *1284:B *262:14 0
9 *1285:I0 *1284:B 0.000226823
10 *197:24 *1284:B 0
11 *197:39 *1284:B 0
*RES
1 *1280:ZN *198:6 5.31 
2 *198:6 *1284:B 16.02 
3 *198:6 *1281:A2 4.5 
*END

*D_NET *199 0.000114966
*CONN
*I *1282:A2 I *D gf180mcu_fd_sc_mcu7t5v0__aoi21_1
*I *1281:ZN O *D gf180mcu_fd_sc_mcu7t5v0__nand2_1
*CAP
1 *1282:A2 5.74829e-05
2 *1281:ZN 5.74829e-05
*RES
1 *1281:ZN *1282:A2 9.45 
*END

*D_NET *200 0.0029711
*CONN
*I *1283:A2 I *D gf180mcu_fd_sc_mcu7t5v0__nor2_1
*I *1282:ZN O *D gf180mcu_fd_sc_mcu7t5v0__aoi21_1
*CAP
1 *1283:A2 0.000921475
2 *1282:ZN 0.000921475
3 *1283:A2 *1281:A1 8.62821e-06
4 *1283:A2 *1369:I 0
5 *1285:I0 *1283:A2 0.000471679
6 *1285:S *1283:A2 7.07125e-05
7 *197:24 *1283:A2 0.000483225
8 *197:39 *1283:A2 9.39061e-05
*RES
1 *1282:ZN *1283:A2 26.1 
*END

*D_NET *201 0.000822142
*CONN
*I *1285:I1 I *D gf180mcu_fd_sc_mcu7t5v0__mux2_2
*I *1284:ZN O *D gf180mcu_fd_sc_mcu7t5v0__oai21_1
*CAP
1 *1285:I1 0.000301154
2 *1284:ZN 0.000301154
3 *1285:S *1285:I1 0.000152165
4 *197:24 *1285:I1 6.76694e-05
*RES
1 *1284:ZN *1285:I1 11.43 
*END

*D_NET *202 0.000475588
*CONN
*I *1286:A2 I *D gf180mcu_fd_sc_mcu7t5v0__and2_1
*I *1285:Z O *D gf180mcu_fd_sc_mcu7t5v0__mux2_2
*CAP
1 *1286:A2 0.000237794
2 *1285:Z 0.000237794
*RES
1 *1285:Z *1286:A2 10.44 
*END

*D_NET *203 0.000868028
*CONN
*I *1289:A2 I *D gf180mcu_fd_sc_mcu7t5v0__aoi21_1
*I *1287:ZN O *D gf180mcu_fd_sc_mcu7t5v0__oai211_1
*CAP
1 *1289:A2 0.000225111
2 *1287:ZN 0.000225111
3 *1289:A2 *244:80 0.000156008
4 *1288:A2 *1289:A2 1.07374e-05
5 *42:14 *1289:A2 9.04462e-05
6 *43:14 *1289:A2 5.4236e-06
7 *197:39 *1289:A2 0.000155192
*RES
1 *1287:ZN *1289:A2 11.25 
*END

*D_NET *204 0.000928304
*CONN
*I *1289:B I *D gf180mcu_fd_sc_mcu7t5v0__aoi21_1
*I *1288:ZN O *D gf180mcu_fd_sc_mcu7t5v0__oai21_1
*CAP
1 *1289:B 0.000210017
2 *1288:ZN 0.000210017
3 *1289:B *1323:CLK 0
4 *1288:A2 *1289:B 0.000241116
5 *42:14 *1289:B 9.97132e-05
6 *43:14 *1289:B 0.000167441
*RES
1 *1288:ZN *1289:B 11.16 
*END

*D_NET *205 0.00985321
*CONN
*I *1367:I I *D gf180mcu_fd_sc_mcu7t5v0__dlyb_1
*I *1368:I I *D gf180mcu_fd_sc_mcu7t5v0__dlyb_1
*I *1290:ZN O *D gf180mcu_fd_sc_mcu7t5v0__nand2_1
*CAP
1 *1367:I 0.000134912
2 *1368:I 0.00117699
3 *1290:ZN 0.000664496
4 *205:10 0.0019764
5 *1367:I *1311:I1 0
6 *1367:I *1370:I 0.000706201
7 *1367:I *278:12 9.08599e-05
8 *1368:I *1299:A2 8.57736e-05
9 *1368:I *1300:A1 0.000207343
10 *1368:I *1300:A2 5.78854e-06
11 *1368:I *1300:B 7.82853e-05
12 *1368:I *1302:A2 0.000159481
13 *1368:I *1307:A3 3.58155e-05
14 *1368:I *1330:SETN 0
15 *1368:I *1332:CLK 0.000364289
16 *1368:I *278:70 0.000125378
17 *1368:I *295:23 0.00145683
18 *1368:I *295:30 0.0014461
19 *205:10 *1166:A2 0
20 *205:10 *1311:I1 0
21 *205:10 *1370:I 0.000729309
22 *205:10 *295:23 0
23 *1267:A1 *205:10 0
24 *1277:A2 *205:10 7.32987e-05
25 *1296:A1 *205:10 0.000301207
26 *84:26 *205:10 2.37216e-05
27 *194:19 *205:10 1.07374e-05
*RES
1 *1290:ZN *205:10 14.94 
2 *205:10 *1368:I 22.05 
3 *205:10 *1367:I 10.89 
*END

*D_NET *206 0.00048919
*CONN
*I *1296:B I *D gf180mcu_fd_sc_mcu7t5v0__oai31_1
*I *1295:ZN O *D gf180mcu_fd_sc_mcu7t5v0__oai21_1
*CAP
1 *1296:B 2.94943e-05
2 *1295:ZN 2.94943e-05
3 *1296:B *257:44 0.000302466
4 *1296:A1 *1296:B 0.000127736
*RES
1 *1295:ZN *1296:B 9.81 
*END

*D_NET *207 0.00165898
*CONN
*I *1297:I0 I *D gf180mcu_fd_sc_mcu7t5v0__mux2_2
*I *1296:ZN O *D gf180mcu_fd_sc_mcu7t5v0__oai31_1
*CAP
1 *1297:I0 0.000632975
2 *1296:ZN 0.000632975
3 *1297:I0 *1295:B 0.000154247
4 *1297:I0 *1296:A2 5.36871e-05
5 *1297:I0 *1297:S 0
6 *1297:I0 *282:72 0
7 *1297:I0 *284:67 0.000185098
*RES
1 *1296:ZN *1297:I0 23.4 
*END

*D_NET *208 0.000385307
*CONN
*I *1299:A2 I *D gf180mcu_fd_sc_mcu7t5v0__nor2_1
*I *1298:ZN O *D gf180mcu_fd_sc_mcu7t5v0__nand2_1
*CAP
1 *1299:A2 0.000125739
2 *1298:ZN 0.000125739
3 *1299:A2 *1307:A3 7.55765e-06
4 *1299:A2 *257:25 4.0497e-05
5 *1368:I *1299:A2 8.57736e-05
*RES
1 *1298:ZN *1299:A2 10.08 
*END

*D_NET *209 0.000556333
*CONN
*I *1300:B I *D gf180mcu_fd_sc_mcu7t5v0__aoi21_1
*I *1299:ZN O *D gf180mcu_fd_sc_mcu7t5v0__nor2_1
*CAP
1 *1300:B 0.000239024
2 *1299:ZN 0.000239024
3 *1331:D *1300:B 0
4 *1368:I *1300:B 7.82853e-05
*RES
1 *1299:ZN *1300:B 10.8 
*END

*D_NET *210 0.00135418
*CONN
*I *1302:A2 I *D gf180mcu_fd_sc_mcu7t5v0__oai21_1
*I *1300:ZN O *D gf180mcu_fd_sc_mcu7t5v0__aoi21_1
*CAP
1 *1302:A2 0.000584505
2 *1300:ZN 0.000584505
3 *1302:A2 *1302:A1 2.56915e-05
4 *1302:A2 *278:91 0
5 *1330:D *1302:A2 0
6 *1368:I *1302:A2 0.000159481
*RES
1 *1300:ZN *1302:A2 13.23 
*END

*D_NET *211 0.000595465
*CONN
*I *1302:B I *D gf180mcu_fd_sc_mcu7t5v0__oai21_1
*I *1301:ZN O *D gf180mcu_fd_sc_mcu7t5v0__nand2_1
*CAP
1 *1302:B 3.10023e-05
2 *1301:ZN 3.10023e-05
3 *1302:B *245:28 0.00037349
4 *1302:B *278:91 0.00015997
*RES
1 *1301:ZN *1302:B 9.99 
*END

*D_NET *212 0.000853529
*CONN
*I *1304:C I *D gf180mcu_fd_sc_mcu7t5v0__oai211_1
*I *1303:ZN O *D gf180mcu_fd_sc_mcu7t5v0__nand2_1
*CAP
1 *1304:C 0.000268655
2 *1303:ZN 0.000268655
3 *1304:C *1303:A1 3.00535e-05
4 *1304:C *1306:B 0
5 *1304:C *1406:I 5.06271e-05
6 *1304:C *246:8 4.6613e-06
7 *1304:C *257:10 4.39741e-05
8 *1304:C *284:61 0.000186904
*RES
1 *1303:ZN *1304:C 11.34 
*END

*D_NET *213 0.000255471
*CONN
*I *1306:A2 I *D gf180mcu_fd_sc_mcu7t5v0__oai21_1
*I *1304:ZN O *D gf180mcu_fd_sc_mcu7t5v0__oai211_1
*CAP
1 *1306:A2 0.000100944
2 *1304:ZN 0.000100944
3 *1306:A2 *1291:S 4.31673e-05
4 *1306:A2 *1304:B 1.0415e-05
*RES
1 *1304:ZN *1306:A2 9.63 
*END

*D_NET *214 0.000413681
*CONN
*I *1306:B I *D gf180mcu_fd_sc_mcu7t5v0__oai21_1
*I *1305:ZN O *D gf180mcu_fd_sc_mcu7t5v0__nand2_1
*CAP
1 *1306:B 0.000101309
2 *1305:ZN 0.000101309
3 *1306:B *1406:I 4.15389e-05
4 *1306:B *284:61 0.000169524
5 *1304:C *1306:B 0
*RES
1 *1305:ZN *1306:B 10.08 
*END

*D_NET *215 0.000701741
*CONN
*I *1309:A2 I *D gf180mcu_fd_sc_mcu7t5v0__oai21_1
*I *1307:ZN O *D gf180mcu_fd_sc_mcu7t5v0__nand3_1
*CAP
1 *1309:A2 0.000299785
2 *1307:ZN 0.000299785
3 *1309:A2 *1291:S 0
4 *1309:A2 *278:70 0
5 *1332:D *1309:A2 0.000102171
*RES
1 *1307:ZN *1309:A2 11.16 
*END

*D_NET *216 0.00046435
*CONN
*I *1309:B I *D gf180mcu_fd_sc_mcu7t5v0__oai21_1
*I *1308:ZN O *D gf180mcu_fd_sc_mcu7t5v0__nand2_1
*CAP
1 *1309:B 8.75202e-05
2 *1308:ZN 8.75202e-05
3 *1309:B *274:10 3.42213e-05
4 *1309:B *278:48 0.000255088
*RES
1 *1308:ZN *1309:B 19.17 
*END

*D_NET *217 0.00337389
*CONN
*I *1316:A4 I *D gf180mcu_fd_sc_mcu7t5v0__nand4_1
*I *1314:A2 I *D gf180mcu_fd_sc_mcu7t5v0__aoi21_1
*I *1311:I0 I *D gf180mcu_fd_sc_mcu7t5v0__mux2_2
*I *1310:Z O *D gf180mcu_fd_sc_mcu7t5v0__and2_1
*CAP
1 *1316:A4 0.000189447
2 *1314:A2 9.15788e-05
3 *1311:I0 0.000563268
4 *1310:Z 0.000154025
5 *217:20 0.000690269
6 *1311:I0 *1311:S 5.97457e-06
7 *1311:I0 *292:8 3.58474e-05
8 *1314:A2 *1315:A2 1.61174e-05
9 *1316:A4 *1316:A1 2.40587e-06
10 *1316:A4 *282:23 0.000231401
11 *1316:A4 *282:59 9.3226e-06
12 *217:20 *1311:S 0.0001185
13 *217:20 *1315:A2 5.30888e-06
14 *217:20 *282:23 0.000774446
15 *217:20 *292:21 9.43651e-05
16 *1316:A2 *1314:A2 3.01487e-05
17 *1316:A2 *1316:A4 4.89065e-05
18 *64:23 *1314:A2 0.000312562
*RES
1 *1310:Z *1311:I0 10.35 
2 *1311:I0 *217:20 8.64 
3 *217:20 *1314:A2 14.58 
4 *217:20 *1316:A4 6.21 
*END

*D_NET *218 0.00158683
*CONN
*I *1313:A2 I *D gf180mcu_fd_sc_mcu7t5v0__aoi21_1
*I *1312:ZN O *D gf180mcu_fd_sc_mcu7t5v0__nand2_1
*CAP
1 *1313:A2 0.000484042
2 *1312:ZN 0.000484042
3 *1313:A2 *1274:A2 0.000185466
4 *1275:A2 *1313:A2 7.25305e-05
5 *1275:A3 *1313:A2 5.90896e-05
6 *1313:A1 *1313:A2 0.000263192
7 *65:12 *1313:A2 0
8 *193:10 *1313:A2 3.84632e-05
*RES
1 *1312:ZN *1313:A2 13.41 
*END

*D_NET *219 0.00291696
*CONN
*I *1317:A2 I *D gf180mcu_fd_sc_mcu7t5v0__oai21_1
*I *1315:A1 I *D gf180mcu_fd_sc_mcu7t5v0__nor2_1
*I *1313:ZN O *D gf180mcu_fd_sc_mcu7t5v0__aoi21_1
*CAP
1 *1317:A2 0
2 *1315:A1 0.000406894
3 *1313:ZN 0.000651554
4 *219:8 0.00105845
5 *1315:A1 *1335:CLK 0.000330453
6 *1315:A1 *1361:I 0.000110119
7 *1315:A1 *241:77 0.000279014
8 *219:8 *282:59 8.04753e-05
9 *1317:A1 *1315:A1 0
10 *65:12 *219:8 0
*RES
1 *1313:ZN *219:8 13.95 
2 *219:8 *1315:A1 13.32 
3 *219:8 *1317:A2 9 
*END

*D_NET *220 0.000444328
*CONN
*I *1315:A2 I *D gf180mcu_fd_sc_mcu7t5v0__nor2_1
*I *1314:ZN O *D gf180mcu_fd_sc_mcu7t5v0__aoi21_1
*CAP
1 *1315:A2 0.000211451
2 *1314:ZN 0.000211451
3 *1314:A2 *1315:A2 1.61174e-05
4 *217:20 *1315:A2 5.30888e-06
*RES
1 *1314:ZN *1315:A2 10.62 
*END

*D_NET *221 0.000719755
*CONN
*I *1317:B I *D gf180mcu_fd_sc_mcu7t5v0__oai21_1
*I *1316:ZN O *D gf180mcu_fd_sc_mcu7t5v0__nand4_1
*CAP
1 *1317:B 0.000212242
2 *1316:ZN 0.000212242
3 *1317:B *282:59 0
4 *1317:A1 *1317:B 0.00029527
*RES
1 *1316:ZN *1317:B 10.89 
*END

*D_NET *222 0.00683318
*CONN
*I *1319:A3 I *D gf180mcu_fd_sc_mcu7t5v0__nand3_1
*I *1318:ZN O *D gf180mcu_fd_sc_mcu7t5v0__nand4_1
*CAP
1 *1319:A3 0.000677447
2 *1318:ZN 0.000677447
3 *1319:A3 *1266:A2 5.34657e-05
4 *1319:A3 *1311:I1 0.000151427
5 *1319:A3 *1320:B 7.42354e-05
6 *1319:A3 *1332:CLK 0.000357781
7 *1319:A3 *244:69 0.000220609
8 *1319:A3 *244:78 0.00222125
9 *1319:A3 *244:107 0.000154052
10 *1319:A3 *278:27 0.000137171
11 *1319:A3 *278:31 0.000106536
12 *1212:A1 *1319:A3 0.000307432
13 *1212:A3 *1319:A3 0.000837435
14 *1269:A2 *1319:A3 0.000491443
15 *1356:D *1319:A3 0.000365454
*RES
1 *1318:ZN *1319:A3 29.7 
*END

*D_NET *223 0.00241208
*CONN
*I *1320:B I *D gf180mcu_fd_sc_mcu7t5v0__oai21_1
*I *1319:ZN O *D gf180mcu_fd_sc_mcu7t5v0__nand3_1
*CAP
1 *1320:B 0.000277028
2 *1319:ZN 0.000277028
3 *1320:B *1311:I1 0.00035741
4 *1320:B *1319:A1 0.000679308
5 *1320:B *1320:A2 1.58782e-05
6 *1320:B *278:27 0.000415035
7 *1320:B *278:31 9.67043e-05
8 *1269:A2 *1320:B 0.000169515
9 *1319:A3 *1320:B 7.42354e-05
10 *1336:D *1320:B 4.99408e-05
*RES
1 *1319:ZN *1320:B 13.05 
*END

*D_NET *224 0.0109478
*CONN
*I *1221:A1 I *D gf180mcu_fd_sc_mcu7t5v0__and3_1
*I *1224:A1 I *D gf180mcu_fd_sc_mcu7t5v0__and4_1
*I *1161:A1 I *D gf180mcu_fd_sc_mcu7t5v0__xor2_1
*I *1192:A2 I *D gf180mcu_fd_sc_mcu7t5v0__xor2_1
*I *1219:A1 I *D gf180mcu_fd_sc_mcu7t5v0__xor2_1
*I *1222:A1 I *D gf180mcu_fd_sc_mcu7t5v0__aoi21_1
*I *1218:A1 I *D gf180mcu_fd_sc_mcu7t5v0__nor2_1
*I *1337:Q O *D gf180mcu_fd_sc_mcu7t5v0__dffrnq_1
*CAP
1 *1221:A1 0
2 *1224:A1 0.000591335
3 *1161:A1 0.000259677
4 *1192:A2 0
5 *1219:A1 0.000167296
6 *1222:A1 0
7 *1218:A1 0.000201148
8 *1337:Q 0.000245253
9 *224:56 0.000347158
10 *224:52 0.000493534
11 *224:50 0.00129695
12 *224:37 0.000792035
13 *224:16 0.000395006
14 *224:12 0.000298692
15 *1161:A1 *1143:I 0
16 *1161:A1 *1164:A2 6.48614e-05
17 *1161:A1 *248:14 0.00023506
18 *1218:A1 *232:25 0.000101615
19 *1218:A1 *276:32 0.000411011
20 *1219:A1 *1192:A1 1.07374e-05
21 *1224:A1 *1224:A2 3.77882e-05
22 *1224:A1 *231:8 0
23 *1224:A1 *231:44 4.83522e-05
24 *224:12 *1337:RN 4.6613e-06
25 *224:12 *1338:RN 0.000502732
26 *224:12 *232:10 5.89034e-05
27 *224:12 *232:25 5.80245e-06
28 *224:12 *281:52 0.000354148
29 *224:16 *1338:RN 5.62435e-06
30 *224:16 *232:25 0.00014932
31 *224:37 *1338:RN 0.000679608
32 *224:37 *232:25 0.000455347
33 *224:37 *232:40 2.89427e-06
34 *224:50 *1164:A2 0.000133413
35 *224:50 *1338:RN 0.00026231
36 *224:50 *232:40 0.000457812
37 *224:56 *1176:A1 0
38 *1177:A4 *1161:A1 0.000280416
39 *1200:A2 *1161:A1 0.00110942
40 *1200:A2 *224:56 3.91523e-05
41 *1219:A2 *1219:A1 9.34006e-05
42 *1219:A2 *1224:A1 0.0001578
43 *1219:A2 *224:52 6.98034e-05
44 *1219:A2 *224:56 0.00012775
45 *1339:D *224:12 0
*RES
1 *1337:Q *224:12 15.84 
2 *224:12 *224:16 4.95 
3 *224:16 *1218:A1 11.79 
4 *224:16 *224:37 7.11 
5 *224:37 *1222:A1 4.5 
6 *224:37 *224:50 11.25 
7 *224:50 *224:52 0.45 
8 *224:52 *224:56 6.03 
9 *224:56 *1219:A1 5.85 
10 *224:56 *1192:A2 4.5 
11 *224:52 *1161:A1 12.87 
12 *224:50 *1224:A1 14.04 
13 *224:12 *1221:A1 4.5 
*END

*D_NET *225 0.0136086
*CONN
*I *1245:A1 I *D gf180mcu_fd_sc_mcu7t5v0__nor2_1
*I *1246:A3 I *D gf180mcu_fd_sc_mcu7t5v0__nand3_1
*I *1250:A3 I *D gf180mcu_fd_sc_mcu7t5v0__nand4_1
*I *1174:A2 I *D gf180mcu_fd_sc_mcu7t5v0__xor2_1
*I *1189:A2 I *D gf180mcu_fd_sc_mcu7t5v0__xor2_1
*I *1347:Q O *D gf180mcu_fd_sc_mcu7t5v0__dffrnq_1
*CAP
1 *1245:A1 0
2 *1246:A3 3.6656e-05
3 *1250:A3 2.94601e-05
4 *1174:A2 0
5 *1189:A2 0.000410939
6 *1347:Q 0.000367107
7 *225:24 0.00191877
8 *225:18 0.00159108
9 *225:16 0.00028438
10 *225:10 0.000561047
11 *1189:A2 *1175:A1 0.000183652
12 *1189:A2 *1189:A1 2.31089e-05
13 *1189:A2 *1193:A1 8.58429e-05
14 *1189:A2 *1193:A2 0.000428433
15 *1189:A2 *229:27 0.000302099
16 *1189:A2 *248:14 0
17 *1189:A2 *279:18 5.78854e-06
18 *1246:A3 *1246:A2 2.31089e-05
19 *1246:A3 *243:71 1.39839e-05
20 *1250:A3 *1250:A2 1.39839e-05
21 *225:10 *276:93 0
22 *225:16 *1246:A2 0.000210938
23 *225:16 *238:20 0.00052864
24 *225:16 *284:67 0.000142246
25 *225:18 *1246:A2 0.000372597
26 *225:18 *243:71 0.000364888
27 *225:18 *284:67 9.22066e-05
28 *225:24 *1352:RN 5.06031e-06
29 *225:24 *228:10 0.00118459
30 *225:24 *229:27 0.000118326
31 *225:24 *243:71 0.00306039
32 *225:24 *243:75 0.000484297
33 *225:24 *287:12 0
34 *1177:A3 *1189:A2 5.15895e-05
35 *1200:A1 *1189:A2 3.01487e-05
36 *1200:A3 *1189:A2 0.000208323
37 *1248:A2 *225:10 9.98816e-05
38 *1249:A2 *225:10 0
39 *1251:A2 *1250:A3 9.04462e-05
40 *1257:A1 *225:24 1.23523e-05
41 *1257:A2 *225:24 7.89386e-05
42 *1393:I *225:24 4.59168e-05
43 *168:66 *225:16 1.56674e-05
44 *168:66 *225:18 1.44867e-05
45 *168:66 *225:24 6.17613e-06
46 *175:8 *225:10 0.000107318
47 *175:8 *225:16 3.73774e-06
*RES
1 *1347:Q *225:10 7.29 
2 *225:10 *225:16 7.02 
3 *225:16 *225:18 1.53 
4 *225:18 *225:24 19.8 
5 *225:24 *1189:A2 9.36 
6 *225:24 *1174:A2 4.5 
7 *225:18 *1250:A3 9.27 
8 *225:16 *1246:A3 9.27 
9 *225:10 *1245:A1 4.5 
*END

*D_NET *226 0.0140278
*CONN
*I *1249:A1 I *D gf180mcu_fd_sc_mcu7t5v0__nor2_1
*I *1250:A4 I *D gf180mcu_fd_sc_mcu7t5v0__nand4_1
*I *1179:A2 I *D gf180mcu_fd_sc_mcu7t5v0__xor2_1
*I *1196:A2 I *D gf180mcu_fd_sc_mcu7t5v0__aoi21_1
*I *1205:C2 I *D gf180mcu_fd_sc_mcu7t5v0__oai222_1
*I *1348:Q O *D gf180mcu_fd_sc_mcu7t5v0__dffrnq_1
*CAP
1 *1249:A1 0
2 *1250:A4 0
3 *1179:A2 0.000245149
4 *1196:A2 7.34841e-05
5 *1205:C2 0.000420511
6 *1348:Q 0.00076524
7 *226:34 0.000687321
8 *226:30 0.00191477
9 *226:22 0.00211497
10 *226:12 0.00140392
11 *1179:A2 *1171:A2 9.35606e-05
12 *1179:A2 *1179:A1 0.00122773
13 *1179:A2 *241:21 3.23563e-06
14 *226:12 *1348:RN 0.000209763
15 *226:22 *238:35 0.000146222
16 *226:22 *284:67 0.00011919
17 *226:30 *1149:I 9.71964e-06
18 *226:30 *1194:B2 0.00015997
19 *226:30 *239:33 7.00203e-05
20 *226:34 *1171:A2 3.56105e-05
21 *226:34 *1179:A1 0.00145965
22 *1184:A1 *1205:C2 8.15289e-06
23 *1187:A3 *1205:C2 0.000175038
24 *1194:B1 *226:30 4.78286e-05
25 *1198:A2 *1196:A2 3.84564e-05
26 *1198:A2 *1205:C2 0.000235173
27 *1200:A4 *1205:C2 0.000204168
28 *1201:A4 *226:34 0.000179365
29 *1203:A3 *226:30 0.000221409
30 *1204:B1 *1179:A2 2.91338e-05
31 *1205:B1 *1205:C2 0.000156001
32 *1205:C1 *1196:A2 5.00115e-05
33 *1205:C1 *1205:C2 0.000240733
34 *1206:A1 *226:30 3.7547e-05
35 *1207:A2 *226:30 1.06861e-05
36 *1249:A2 *226:22 0.000327505
37 *1251:A1 *226:22 5.47615e-05
38 *1251:A1 *226:30 0.000427039
39 *1251:A2 *226:22 0.000278756
40 *1251:A2 *226:30 9.81455e-05
41 *1257:A2 *226:30 4.78286e-05
42 *1366:I *226:12 0
43 *26:10 *226:12 0
44 *175:8 *226:22 0
*RES
1 *1348:Q *226:12 19.26 
2 *226:12 *226:22 14.67 
3 *226:22 *226:30 15.75 
4 *226:30 *226:34 8.37 
5 *226:34 *1205:C2 17.91 
6 *226:34 *1196:A2 5.13 
7 *226:30 *1179:A2 12.6 
8 *226:22 *1250:A4 4.5 
9 *226:12 *1249:A1 4.5 
*END

*D_NET *227 0.00771054
*CONN
*I *1253:A1 I *D gf180mcu_fd_sc_mcu7t5v0__xnor2_1
*I *1255:A1 I *D gf180mcu_fd_sc_mcu7t5v0__aoi21_1
*I *1191:A2 I *D gf180mcu_fd_sc_mcu7t5v0__xor2_1
*I *1173:A2 I *D gf180mcu_fd_sc_mcu7t5v0__xor2_1
*I *1256:A1 I *D gf180mcu_fd_sc_mcu7t5v0__nand2_1
*I *1349:Q O *D gf180mcu_fd_sc_mcu7t5v0__dffrnq_1
*CAP
1 *1253:A1 0.000233244
2 *1255:A1 0
3 *1191:A2 0.000119473
4 *1173:A2 6.9651e-05
5 *1256:A1 0.00013524
6 *1349:Q 0.00049373
7 *227:47 0.000265817
8 *227:25 0.000961509
9 *227:21 0.00102176
10 *227:6 0.000845776
11 *1173:A2 *1197:A2 0.000119182
12 *1173:A2 *230:32 4.74921e-05
13 *1191:A2 *1191:A1 0.000218664
14 *1191:A2 *1197:A1 1.23523e-05
15 *1191:A2 *1197:A2 9.83802e-05
16 *1191:A2 *287:12 1.18477e-05
17 *1253:A1 *1254:A1 1.86887e-06
18 *1253:A1 *1258:A1 0
19 *1256:A1 *1256:A2 7.55765e-06
20 *227:6 *1349:RN 0
21 *227:6 *277:8 0
22 *227:21 *284:67 0.000157964
23 *227:21 *284:71 7.14873e-05
24 *227:21 *284:75 0.000188032
25 *227:25 *1197:A2 3.38355e-05
26 *227:25 *1255:B 0.00010802
27 *227:25 *228:12 0.000470257
28 *227:25 *230:32 0.000241528
29 *227:47 *1255:B 4.6613e-06
30 *1251:A1 *1256:A1 4.80547e-05
31 *1251:A1 *227:6 1.56862e-05
32 *1252:A3 *227:6 0.000146698
33 *1253:A2 *1253:A1 0.000826718
34 *1255:A2 *227:21 2.70125e-05
35 *1258:A2 *1253:A1 0.000116278
36 *1348:D *227:6 1.26644e-05
37 *1350:D *1253:A1 0
38 *1350:D *227:25 0
39 *1350:D *227:47 0
40 *178:8 *227:21 0.000429878
41 *182:12 *1256:A1 6.1883e-05
42 *182:12 *227:6 8.63363e-05
*RES
1 *1349:Q *227:6 8.19 
2 *227:6 *1256:A1 5.58 
3 *227:6 *227:21 12.87 
4 *227:21 *227:25 6.84 
5 *227:25 *1173:A2 5.31 
6 *227:25 *1191:A2 15.12 
7 *227:21 *227:47 0.27 
8 *227:47 *1255:A1 4.5 
9 *227:47 *1253:A1 7.11 
*END

*D_NET *228 0.00527834
*CONN
*I *1256:A2 I *D gf180mcu_fd_sc_mcu7t5v0__nand2_1
*I *1255:B I *D gf180mcu_fd_sc_mcu7t5v0__aoi21_1
*I *1169:A2 I *D gf180mcu_fd_sc_mcu7t5v0__xor2_1
*I *1197:A2 I *D gf180mcu_fd_sc_mcu7t5v0__xor2_1
*I *1350:Q O *D gf180mcu_fd_sc_mcu7t5v0__dffrnq_1
*CAP
1 *1256:A2 0.00010919
2 *1255:B 0.000248777
3 *1169:A2 0
4 *1197:A2 0.000242116
5 *1350:Q 0
6 *228:12 0.000814121
7 *228:10 0.00102753
8 *228:4 0.00031594
9 *1197:A2 *1191:A1 1.23523e-05
10 *1197:A2 *1197:A1 0.000393885
11 *1197:A2 *255:14 0
12 *1173:A2 *1197:A2 0.000119182
13 *1191:A2 *1197:A2 9.83802e-05
14 *1256:A1 *1256:A2 7.55765e-06
15 *1257:A3 *1256:A2 3.24207e-05
16 *182:12 *1256:A2 5.55187e-05
17 *225:24 *228:10 0.00118459
18 *227:25 *1197:A2 3.38355e-05
19 *227:25 *1255:B 0.00010802
20 *227:25 *228:12 0.000470257
21 *227:47 *1255:B 4.6613e-06
*RES
1 *1350:Q *228:4 4.5 
2 *228:4 *228:10 11.97 
3 *228:10 *228:12 4.77 
4 *228:12 *1197:A2 16.74 
5 *228:12 *1169:A2 4.5 
6 *228:10 *1255:B 6.03 
7 *228:4 *1256:A2 5.4 
*END

*D_NET *229 0.00704722
*CONN
*I *1259:A1 I *D gf180mcu_fd_sc_mcu7t5v0__nor2_1
*I *1175:A2 I *D gf180mcu_fd_sc_mcu7t5v0__xor2_1
*I *1193:A2 I *D gf180mcu_fd_sc_mcu7t5v0__xor2_1
*I *1260:A1 I *D gf180mcu_fd_sc_mcu7t5v0__and2_1
*I *1351:Q O *D gf180mcu_fd_sc_mcu7t5v0__dffrnq_1
*CAP
1 *1259:A1 7.28398e-05
2 *1175:A2 0
3 *1193:A2 0.000109325
4 *1260:A1 6.12527e-05
5 *1351:Q 0.000333243
6 *229:27 0.00121966
7 *229:12 0.00133828
8 *229:10 0.000572768
9 *1193:A2 *1198:A1 1.56862e-05
10 *1259:A1 *1263:C 0.000110619
11 *1260:A1 *1263:C 0.000177559
12 *229:10 *277:20 0
13 *229:12 *1263:C 9.84776e-05
14 *229:27 *1263:C 0.000209097
15 *229:27 *230:12 0
16 *229:27 *255:14 0.000183662
17 *229:27 *279:12 0.000172267
18 *229:27 *288:10 1.23715e-05
19 *1189:A2 *1193:A2 0.000428433
20 *1189:A2 *229:27 0.000302099
21 *1259:A2 *1259:A1 0.000183662
22 *1259:A2 *229:12 3.12451e-05
23 *1260:A2 *229:10 0.000166798
24 *1393:I *229:27 0.000104278
25 *182:14 *229:10 0.00102527
26 *225:24 *229:27 0.000118326
*RES
1 *1351:Q *229:10 16.65 
2 *229:10 *229:12 1.53 
3 *229:12 *1260:A1 5.4 
4 *229:12 *229:27 9.27 
5 *229:27 *1193:A2 5.67 
6 *229:27 *1175:A2 4.5 
7 *229:10 *1259:A1 5.67 
*END

*D_NET *230 0.00765181
*CONN
*I *1196:B I *D gf180mcu_fd_sc_mcu7t5v0__aoi21_1
*I *1183:A2 I *D gf180mcu_fd_sc_mcu7t5v0__xnor2_1
*I *1262:A1 I *D gf180mcu_fd_sc_mcu7t5v0__nor2_1
*I *1263:A1 I *D gf180mcu_fd_sc_mcu7t5v0__aoi211_1
*I *1352:Q O *D gf180mcu_fd_sc_mcu7t5v0__dffrnq_1
*CAP
1 *1196:B 0
2 *1183:A2 0.000439464
3 *1262:A1 8.41844e-05
4 *1263:A1 0
5 *1352:Q 0
6 *230:32 0.00139722
7 *230:12 0.00104475
8 *230:6 0.00191832
9 *1183:A2 *1179:A1 0.000209248
10 *1262:A1 *1263:C 3.83508e-05
11 *230:12 *1263:C 7.55765e-06
12 *230:12 *1352:CLK 0
13 *230:12 *255:14 0
14 *230:32 *1173:A1 0.000225332
15 *230:32 *255:14 0
16 *230:32 *287:12 0
17 *1173:A2 *230:32 4.74921e-05
18 *1182:A1 *230:32 0.00038059
19 *1184:A2 *1183:A2 1.91698e-05
20 *1184:A2 *230:32 0.000219834
21 *1201:A4 *1183:A2 0.00049896
22 *1205:C1 *1183:A2 0.000172267
23 *1205:C1 *230:32 1.19491e-05
24 *1263:A2 *1262:A1 0.00012298
25 *1263:A2 *230:12 1.07374e-05
26 *1263:B *1262:A1 0.000302466
27 *1352:D *230:12 0.00015997
28 *97:8 *230:32 9.9434e-05
29 *227:25 *230:32 0.000241528
30 *229:27 *230:12 0
*RES
1 *1352:Q *230:6 9 
2 *230:6 *230:12 10.98 
3 *230:12 *1263:A1 4.5 
4 *230:12 *1262:A1 5.85 
5 *230:6 *230:32 13.41 
6 *230:32 *1183:A2 18 
7 *230:32 *1196:B 4.5 
*END

*D_NET *231 0.00618284
*CONN
*I *1190:A2 I *D gf180mcu_fd_sc_mcu7t5v0__aoi22_1
*I *1143:I I *D gf180mcu_fd_sc_mcu7t5v0__clkinv_1
*I *1176:A2 I *D gf180mcu_fd_sc_mcu7t5v0__xor2_1
*I *1224:A2 I *D gf180mcu_fd_sc_mcu7t5v0__and4_1
*I *1222:A2 I *D gf180mcu_fd_sc_mcu7t5v0__aoi21_1
*I *1221:A2 I *D gf180mcu_fd_sc_mcu7t5v0__and3_1
*I *1338:Q O *D gf180mcu_fd_sc_mcu7t5v0__dffrnq_1
*CAP
1 *1190:A2 0.000282547
2 *1143:I 0.000143635
3 *1176:A2 0.000215722
4 *1224:A2 0.000725714
5 *1222:A2 0
6 *1221:A2 0.000320301
7 *1338:Q 0
8 *231:46 0.000619116
9 *231:44 0.00107765
10 *231:8 0.000713151
11 *231:4 0.00058322
12 *1176:A2 *1142:I 0
13 *1190:A2 *1142:I 0
14 *1221:A2 *1338:RN 0.000109394
15 *1224:A2 *1224:A4 0
16 *231:8 *1338:RN 0.00101768
17 *231:46 *1142:I 0
18 *1161:A1 *1143:I 0
19 *1198:A2 *1190:A2 8.22657e-05
20 *1198:A2 *231:46 0.000112652
21 *1219:A2 *1176:A2 6.20705e-05
22 *1219:A2 *231:46 1.48237e-05
23 *1223:A3 *1221:A2 1.67605e-05
24 *1224:A1 *1224:A2 3.77882e-05
25 *1224:A1 *231:8 0
26 *1224:A1 *231:44 4.83522e-05
27 *159:8 *231:44 0
28 *159:14 *231:44 0
*RES
1 *1338:Q *231:4 4.5 
2 *231:4 *231:8 3.96 
3 *231:8 *1221:A2 6.75 
4 *231:8 *1222:A2 4.5 
5 *231:4 *1224:A2 6.03 
6 *1224:A2 *231:44 12.69 
7 *231:44 *231:46 1.89 
8 *231:46 *1176:A2 10.17 
9 *231:46 *1143:I 9.99 
10 *231:44 *1190:A2 11.16 
*END

*D_NET *232 0.0149956
*CONN
*I *1224:A3 I *D gf180mcu_fd_sc_mcu7t5v0__and4_1
*I *1188:A2 I *D gf180mcu_fd_sc_mcu7t5v0__xnor2_1
*I *1164:A2 I *D gf180mcu_fd_sc_mcu7t5v0__xor2_1
*I *1222:B I *D gf180mcu_fd_sc_mcu7t5v0__aoi21_1
*I *1221:A3 I *D gf180mcu_fd_sc_mcu7t5v0__and3_1
*I *1339:Q O *D gf180mcu_fd_sc_mcu7t5v0__dffrnq_1
*CAP
1 *1224:A3 0
2 *1188:A2 0.000880801
3 *1164:A2 0.000617045
4 *1222:B 9.04136e-05
5 *1221:A3 0
6 *1339:Q 0.000752506
7 *232:57 0.00152482
8 *232:40 0.0016771
9 *232:25 0.000796651
10 *232:10 0.0010427
11 *1164:A2 *1161:A2 5.42456e-05
12 *1164:A2 *1192:A1 0
13 *232:10 *1339:RN 3.14347e-05
14 *232:10 *233:12 0.000875083
15 *232:10 *276:26 0.000118541
16 *232:10 *276:28 0.000321417
17 *232:10 *276:32 0.000101507
18 *232:10 *281:52 0.000182928
19 *232:25 *276:32 0.000332372
20 *1161:A1 *1164:A2 6.48614e-05
21 *1200:A2 *1164:A2 0.000507873
22 *1218:A1 *232:25 0.000101615
23 *1219:A2 *1164:A2 0.000638823
24 *1220:A2 *1164:A2 0
25 *1225:A2 *232:10 0.000583059
26 *1227:A1 *1188:A2 0.00057022
27 *1228:A2 *1188:A2 1.86887e-06
28 *1338:D *1164:A2 0
29 *1340:D *232:10 0.000361597
30 *89:10 *1188:A2 1.18477e-05
31 *89:25 *1188:A2 0.000987527
32 *157:8 *232:10 0.000503244
33 *159:14 *1188:A2 0
34 *159:27 *1188:A2 0
35 *224:12 *232:10 5.89034e-05
36 *224:12 *232:25 5.80245e-06
37 *224:16 *232:25 0.00014932
38 *224:37 *232:25 0.000455347
39 *224:37 *232:40 2.89427e-06
40 *224:50 *1164:A2 0.000133413
41 *224:50 *232:40 0.000457812
*RES
1 *1339:Q *232:10 18.36 
2 *232:10 *1221:A3 9 
3 *232:10 *232:25 7.29 
4 *232:25 *1222:B 13.95 
5 *232:25 *232:40 8.19 
6 *232:40 *1164:A2 15.12 
7 *232:40 *232:57 3.33 
8 *232:57 *1188:A2 15.93 
9 *232:57 *1224:A3 9 
*END

*D_NET *233 0.0116631
*CONN
*I *1144:I I *D gf180mcu_fd_sc_mcu7t5v0__clkinv_1
*I *1172:A2 I *D gf180mcu_fd_sc_mcu7t5v0__xor2_1
*I *1224:A4 I *D gf180mcu_fd_sc_mcu7t5v0__and4_1
*I *1225:A1 I *D gf180mcu_fd_sc_mcu7t5v0__nor2_1
*I *1340:Q O *D gf180mcu_fd_sc_mcu7t5v0__dffrnq_1
*CAP
1 *1144:I 0.000318223
2 *1172:A2 0.00101181
3 *1224:A4 0.000850128
4 *1225:A1 0
5 *1340:Q 0.000323811
6 *233:12 0.00134048
7 *233:6 0.00150775
8 *1144:I *1188:A1 5.46315e-05
9 *1144:I *235:40 0.000390485
10 *1144:I *235:46 0
11 *1144:I *237:22 0
12 *1172:A2 *235:6 0.00014044
13 *1172:A2 *235:25 0.000623078
14 *1172:A2 *235:40 1.69023e-06
15 *1172:A2 *237:22 0.000240557
16 *1172:A2 *249:20 0.000233306
17 *1224:A4 *1341:CLK 5.53775e-06
18 *233:6 *235:6 7.84041e-05
19 *233:6 *249:20 0.000101167
20 *233:12 *1341:RN 6.58085e-05
21 *233:12 *276:26 0.000592203
22 *233:12 *281:18 0.000137835
23 *233:12 *281:52 0.000112145
24 *1224:A2 *1224:A4 0
25 *1226:A2 *1224:A4 0
26 *1226:A3 *1224:A4 9.84908e-05
27 *1231:A2 *1172:A2 0.000636026
28 *1232:A3 *1172:A2 0.000231436
29 *1237:A3 *1172:A2 0.000354613
30 *1237:A4 *1172:A2 0.00017952
31 *1342:D *1172:A2 0
32 *1342:D *233:6 0
33 *159:8 *1224:A4 4.83522e-05
34 *159:14 *1224:A4 0.00032683
35 *159:38 *1172:A2 0.000783274
36 *232:10 *233:12 0.000875083
*RES
1 *1340:Q *233:6 6.75 
2 *233:6 *233:12 16.11 
3 *233:12 *1225:A1 4.5 
4 *233:12 *1224:A4 10.98 
5 *233:6 *1172:A2 22.68 
6 *1172:A2 *1144:I 20.88 
*END

*D_NET *234 0.00233914
*CONN
*I *1231:A1 I *D gf180mcu_fd_sc_mcu7t5v0__aoi21_1
*I *1229:A1 I *D gf180mcu_fd_sc_mcu7t5v0__and2_1
*I *1145:I I *D gf180mcu_fd_sc_mcu7t5v0__clkinv_1
*I *1341:Q O *D gf180mcu_fd_sc_mcu7t5v0__dffrnq_1
*CAP
1 *1231:A1 9.43005e-05
2 *1229:A1 2.22482e-05
3 *1145:I 0.000103469
4 *1341:Q 0
5 *234:8 0.000342595
6 *234:4 0.000311179
7 *1229:A1 *235:25 3.22122e-05
8 *1231:A1 *1231:B 1.87718e-05
9 *1231:A1 *235:25 0.000197514
10 *1231:A1 *249:20 4.74921e-05
11 *234:8 *1231:B 2.65444e-06
12 *234:8 *235:25 0.000256555
13 *234:8 *249:20 0.00091015
*RES
1 *1341:Q *234:4 4.5 
2 *234:4 *234:8 3.24 
3 *234:8 *1145:I 5.31 
4 *234:8 *1229:A1 4.77 
5 *234:4 *1231:A1 5.85 
*END

*D_NET *235 0.0103434
*CONN
*I *1162:A2 I *D gf180mcu_fd_sc_mcu7t5v0__xor2_1
*I *1205:B2 I *D gf180mcu_fd_sc_mcu7t5v0__oai222_1
*I *1190:B2 I *D gf180mcu_fd_sc_mcu7t5v0__aoi22_1
*I *1229:A2 I *D gf180mcu_fd_sc_mcu7t5v0__and2_1
*I *1231:B I *D gf180mcu_fd_sc_mcu7t5v0__aoi21_1
*I *1342:Q O *D gf180mcu_fd_sc_mcu7t5v0__dffrnq_1
*CAP
1 *1162:A2 0.000118518
2 *1205:B2 0.000232823
3 *1190:B2 0
4 *1229:A2 0
5 *1231:B 3.53939e-05
6 *1342:Q 0.00017278
7 *235:46 0.000984882
8 *235:40 0.00150939
9 *235:25 0.00104209
10 *235:6 0.000611454
11 *1162:A2 *237:22 0.000507502
12 *1231:B *249:20 3.22122e-05
13 *235:6 *249:20 0.000224482
14 *235:25 *249:20 0.000379778
15 *235:40 *1188:A1 2.27485e-05
16 *235:40 *1362:I 0
17 *235:40 *237:22 0.000570481
18 *235:40 *249:20 0.000343622
19 *235:46 *1142:I 0.000310002
20 *235:46 *250:23 0
21 *1144:I *235:40 0.000390485
22 *1144:I *235:46 0
23 *1172:A2 *235:6 0.00014044
24 *1172:A2 *235:25 0.000623078
25 *1172:A2 *235:40 1.69023e-06
26 *1181:A1 *235:46 0
27 *1190:A1 *235:46 0.000244819
28 *1190:B1 *1205:B2 0.000371849
29 *1198:A2 *1205:B2 0.000392679
30 *1203:A2 *235:46 0.000416253
31 *1207:A1 *235:46 0
32 *1207:A4 *235:46 0
33 *1229:A1 *235:25 3.22122e-05
34 *1231:A1 *1231:B 1.87718e-05
35 *1231:A1 *235:25 0.000197514
36 *1232:A2 *235:25 0
37 *1232:A3 *235:6 4.22964e-05
38 *1232:A3 *235:25 3.55118e-05
39 *150:8 *235:46 0
40 *233:6 *235:6 7.84041e-05
41 *234:8 *1231:B 2.65444e-06
42 *234:8 *235:25 0.000256555
*RES
1 *1342:Q *235:6 6.57 
2 *235:6 *1231:B 5.04 
3 *235:6 *235:25 5.67 
4 *235:25 *1229:A2 4.5 
5 *235:25 *235:40 15.03 
6 *235:40 *235:46 16.65 
7 *235:46 *1190:B2 4.5 
8 *235:46 *1205:B2 7.29 
9 *235:40 *1162:A2 5.85 
*END

*D_NET *236 0.0140394
*CONN
*I *1233:A1 I *D gf180mcu_fd_sc_mcu7t5v0__nand2_1
*I *1195:A2 I *D gf180mcu_fd_sc_mcu7t5v0__xor2_1
*I *1171:A2 I *D gf180mcu_fd_sc_mcu7t5v0__xor2_1
*I *1237:A1 I *D gf180mcu_fd_sc_mcu7t5v0__nand4_1
*I *1234:A1 I *D gf180mcu_fd_sc_mcu7t5v0__xnor2_1
*I *1343:Q O *D gf180mcu_fd_sc_mcu7t5v0__dffrnq_1
*CAP
1 *1233:A1 6.99446e-06
2 *1195:A2 0.000342573
3 *1171:A2 0.00120595
4 *1237:A1 2.04675e-05
5 *1234:A1 0
6 *1343:Q 0.00089964
7 *236:40 0.00252432
8 *236:23 0.00100406
9 *236:21 0.00038413
10 *236:12 0.00126898
11 *1171:A2 *1171:A1 2.84698e-05
12 *1171:A2 *1179:A1 0
13 *1171:A2 *241:21 0.000332105
14 *1171:A2 *241:39 1.71254e-05
15 *1195:A2 *241:11 0.000109117
16 *1195:A2 *241:21 1.78022e-05
17 *1233:A1 *237:14 0.000351582
18 *1237:A1 *237:14 0.000682113
19 *236:12 *1322:CLK 4.76605e-05
20 *236:12 *281:102 0
21 *236:21 *276:84 0
22 *236:23 *237:14 0.000210938
23 *236:40 *241:39 0.000542553
24 *236:40 *276:84 0.000194467
25 *1179:A2 *1171:A2 9.35606e-05
26 *1180:A1 *236:40 1.19491e-05
27 *1181:A2 *236:40 0.000140022
28 *1185:A2 *1195:A2 9.90941e-05
29 *1187:A3 *1171:A2 0
30 *1187:A3 *1195:A2 8.8469e-05
31 *1187:A3 *236:40 1.47998e-05
32 *1200:A4 *1195:A2 0
33 *1201:A4 *1171:A2 0.00130981
34 *1205:C1 *1171:A2 0.000158798
35 *1207:A2 *1171:A2 0.000138299
36 *1233:A2 *236:21 0.000179252
37 *1234:A2 *236:12 0.000109323
38 *1236:A1 *236:40 0
39 *1236:A2 *236:40 0
40 *1365:I *236:40 0
41 *168:12 *1233:A1 0.000393153
42 *168:12 *1237:A1 0.000601522
43 *168:12 *236:23 0.00023968
44 *168:27 *1195:A2 0.00023506
45 *226:34 *1171:A2 3.56105e-05
*RES
1 *1343:Q *236:12 20.16 
2 *236:12 *1234:A1 4.5 
3 *236:12 *236:21 7.29 
4 *236:21 *236:23 0.63 
5 *236:23 *1237:A1 10.71 
6 *236:23 *236:40 17.28 
7 *236:40 *1171:A2 20.97 
8 *236:40 *1195:A2 12.24 
9 *236:21 *1233:A1 9.99 
*END

*D_NET *237 0.0143241
*CONN
*I *1148:I I *D gf180mcu_fd_sc_mcu7t5v0__clkinv_1
*I *1237:A2 I *D gf180mcu_fd_sc_mcu7t5v0__nand4_1
*I *1204:B2 I *D gf180mcu_fd_sc_mcu7t5v0__oai22_1
*I *1199:A2 I *D gf180mcu_fd_sc_mcu7t5v0__aoi221_1
*I *1344:Q O *D gf180mcu_fd_sc_mcu7t5v0__dffrnq_1
*CAP
1 *1148:I 0.000524451
2 *1237:A2 0
3 *1204:B2 0
4 *1199:A2 0.000597949
5 *1344:Q 0.000804029
6 *237:22 0.00115152
7 *237:14 0.00105329
8 *237:10 0.00182819
9 *1148:I *242:26 0
10 *1148:I *281:102 0.000126868
11 *1199:A2 *1162:A1 6.3395e-05
12 *1199:A2 *241:21 5.79059e-06
13 *237:10 *1344:RN 0
14 *237:22 *1162:A1 0.000408665
15 *237:22 *276:84 3.65543e-05
16 *1144:I *237:22 0
17 *1162:A2 *237:22 0.000507502
18 *1172:A2 *237:22 0.000240557
19 *1180:A2 *237:22 0.000673473
20 *1185:A2 *1148:I 9.84908e-05
21 *1199:B1 *1199:A2 1.0415e-05
22 *1200:A4 *1199:A2 0.000247389
23 *1200:A4 *237:22 0.000611791
24 *1201:A3 *1199:A2 0.000151427
25 *1203:A3 *1199:A2 0
26 *1204:B1 *1199:A2 0.00073256
27 *1207:A2 *1199:A2 6.77686e-05
28 *1233:A1 *237:14 0.000351582
29 *1236:A1 *1148:I 0.000357339
30 *1237:A1 *237:14 0.000682113
31 *1237:A3 *237:22 3.55118e-05
32 *1238:A1 *1148:I 0.000400528
33 *1238:A2 *1148:I 0.00112956
34 *1238:A3 *237:14 1.85284e-05
35 *1344:D *237:14 0.000121621
36 *1355:D *237:10 0.000151417
37 *151:6 *1148:I 0.000164693
38 *168:12 *1148:I 1.38609e-05
39 *168:12 *237:14 0.000173848
40 *235:40 *237:22 0.000570481
41 *236:23 *237:14 0.000210938
*RES
1 *1344:Q *237:10 14.94 
2 *237:10 *237:14 10.17 
3 *237:14 *237:22 12.69 
4 *237:22 *1199:A2 15.03 
5 *237:22 *1204:B2 9 
6 *237:14 *1237:A2 4.5 
7 *237:10 *1148:I 15.75 
*END

*D_NET *238 0.0150966
*CONN
*I *1240:A1 I *D gf180mcu_fd_sc_mcu7t5v0__xor2_1
*I *1250:A1 I *D gf180mcu_fd_sc_mcu7t5v0__nand4_1
*I *1199:B2 I *D gf180mcu_fd_sc_mcu7t5v0__aoi221_1
*I *1178:A2 I *D gf180mcu_fd_sc_mcu7t5v0__xor2_1
*I *1150:I I *D gf180mcu_fd_sc_mcu7t5v0__clkinv_1
*I *1246:A1 I *D gf180mcu_fd_sc_mcu7t5v0__nand3_1
*I *1345:Q O *D gf180mcu_fd_sc_mcu7t5v0__dffrnq_1
*CAP
1 *1240:A1 0
2 *1250:A1 0
3 *1199:B2 0
4 *1178:A2 0.000227693
5 *1150:I 3.04092e-05
6 *1246:A1 0
7 *1345:Q 0.000640191
8 *238:48 0.000545904
9 *238:37 0.000502323
10 *238:35 0.000276618
11 *238:20 0.000551164
12 *238:12 0.00106844
13 *1150:I *239:33 1.07374e-05
14 *1178:A2 *1147:I 0.00023712
15 *1178:A2 *1179:A1 0
16 *238:12 *1345:CLK 0.000169917
17 *238:12 *254:12 9.07674e-05
18 *238:12 *284:67 0.00016672
19 *238:20 *1246:A2 1.61174e-05
20 *238:20 *1345:CLK 0
21 *238:20 *284:67 0.00250002
22 *238:35 *284:67 0.000676974
23 *238:37 *1250:A2 0.000150744
24 *238:37 *239:33 0.00153367
25 *238:37 *243:71 0.00183634
26 *238:37 *255:14 1.23607e-05
27 *238:48 *1149:I 8.93743e-05
28 *238:48 *1363:I 0.00050482
29 *238:48 *241:21 0
30 *238:48 *243:71 6.2979e-05
31 *1170:A1 *1178:A2 0.000986985
32 *1194:A2 *238:48 0.000236727
33 *1198:B2 *238:48 5.23429e-06
34 *1199:B1 *238:48 3.12451e-05
35 *1199:C *238:48 0.000189245
36 *1201:A3 *1178:A2 0
37 *1203:A3 *238:48 6.56871e-05
38 *1249:A2 *238:35 0
39 *1251:A2 *238:35 9.90362e-06
40 *1251:A2 *238:37 3.73774e-06
41 *1345:D *238:12 0.000142874
42 *91:10 *1178:A2 0.000317701
43 *93:12 *1178:A2 0.00023711
44 *93:12 *238:48 0.000231442
45 *175:8 *238:20 3.12451e-05
46 *175:8 *238:35 3.12451e-05
47 *225:16 *238:20 0.00052864
48 *226:22 *238:35 0.000146222
*RES
1 *1345:Q *238:12 19.8 
2 *238:12 *238:20 15.66 
3 *238:20 *1246:A1 4.5 
4 *238:20 *238:35 11.25 
5 *238:35 *238:37 5.13 
6 *238:37 *1150:I 4.77 
7 *238:37 *238:48 4.32 
8 *238:48 *1178:A2 16.65 
9 *238:48 *1199:B2 4.5 
10 *238:35 *1250:A1 4.5 
11 *238:12 *1240:A1 4.5 
*END

*D_NET *239 0.0130289
*CONN
*I *1170:A2 I *D gf180mcu_fd_sc_mcu7t5v0__xor2_1
*I *1242:A1 I *D gf180mcu_fd_sc_mcu7t5v0__nor2_1
*I *1152:I I *D gf180mcu_fd_sc_mcu7t5v0__clkinv_1
*I *1250:A2 I *D gf180mcu_fd_sc_mcu7t5v0__nand4_1
*I *1246:A2 I *D gf180mcu_fd_sc_mcu7t5v0__nand3_1
*I *1194:B2 I *D gf180mcu_fd_sc_mcu7t5v0__aoi22_1
*I *1346:Q O *D gf180mcu_fd_sc_mcu7t5v0__dffrnq_1
*CAP
1 *1170:A2 0.000103379
2 *1242:A1 0.000233027
3 *1152:I 1.57391e-05
4 *1250:A2 7.38176e-05
5 *1246:A2 0.000129886
6 *1194:B2 0.000112887
7 *1346:Q 0.000403246
8 *239:33 0.000767026
9 *239:14 0.000830639
10 *239:12 0.000241646
11 *239:10 0.000623113
12 *239:8 0.000825235
13 *1152:I *1363:I 3.98088e-05
14 *1170:A2 *254:12 0.00125447
15 *1194:B2 *1149:I 1.07374e-05
16 *1194:B2 *255:14 0.000105262
17 *1242:A1 *276:84 0
18 *1246:A2 *243:71 1.4382e-06
19 *239:10 *243:56 0.000272679
20 *239:12 *243:56 0.00023184
21 *239:14 *243:56 2.63437e-05
22 *239:14 *255:14 1.3026e-05
23 *239:33 *255:14 0.000303527
24 *1150:I *239:33 1.07374e-05
25 *1198:B2 *1152:I 9.04462e-05
26 *1199:C *1194:B2 1.54403e-05
27 *1199:C *239:14 3.27495e-05
28 *1239:A1 *1242:A1 6.92081e-06
29 *1240:A2 *1170:A2 9.20679e-05
30 *1243:A1 *1242:A1 1.4382e-06
31 *1243:A2 *239:12 0.0002787
32 *1246:A3 *1246:A2 2.31089e-05
33 *1247:A2 *1246:A2 9.04462e-05
34 *1250:A3 *1250:A2 1.39839e-05
35 *1251:A2 *1250:A2 5.22596e-06
36 *1251:A2 *239:33 7.55765e-06
37 *1257:A2 *239:33 3.29477e-05
38 *94:17 *239:14 4.843e-05
39 *96:8 *239:12 9.39061e-05
40 *96:8 *239:14 0.000101615
41 *168:27 *1170:A2 0.000712846
42 *168:35 *239:10 0.00149982
43 *168:35 *239:12 0.000587171
44 *168:66 *1246:A2 9.53132e-05
45 *172:14 *1242:A1 5.00145e-05
46 *175:8 *1246:A2 5.23429e-06
47 *225:16 *1246:A2 0.000210938
48 *225:18 *1246:A2 0.000372597
49 *226:30 *1194:B2 0.00015997
50 *226:30 *239:33 7.00203e-05
51 *238:20 *1246:A2 1.61174e-05
52 *238:37 *1250:A2 0.000150744
53 *238:37 *239:33 0.00153367
*RES
1 *1346:Q *239:8 11.97 
2 *239:8 *239:10 4.59 
3 *239:10 *239:12 2.25 
4 *239:12 *239:14 1.35 
5 *239:14 *1194:B2 10.44 
6 *239:14 *239:33 10.35 
7 *239:33 *1246:A2 15.48 
8 *239:33 *1250:A2 5.22 
9 *239:12 *1152:I 9.27 
10 *239:10 *1242:A1 10.35 
11 *239:8 *1170:A2 12.33 
*END

*D_NET *240 0.0126648
*CONN
*I *1268:A2 I *D gf180mcu_fd_sc_mcu7t5v0__nand2_1
*I *1212:A2 I *D gf180mcu_fd_sc_mcu7t5v0__nand3_1
*I *1318:A4 I *D gf180mcu_fd_sc_mcu7t5v0__nand4_1
*I *1290:A1 I *D gf180mcu_fd_sc_mcu7t5v0__nand2_1
*I *1310:A1 I *D gf180mcu_fd_sc_mcu7t5v0__and2_1
*I *1278:B2 I *D gf180mcu_fd_sc_mcu7t5v0__oai22_1
*I *1272:A1 I *D gf180mcu_fd_sc_mcu7t5v0__nor2_1
*I *1353:Q O *D gf180mcu_fd_sc_mcu7t5v0__dffrnq_1
*CAP
1 *1268:A2 0
2 *1212:A2 0.000119704
3 *1318:A4 3.64651e-05
4 *1290:A1 0
5 *1310:A1 0.00034983
6 *1278:B2 0
7 *1272:A1 0.000387778
8 *1353:Q 0.00015591
9 *240:66 0.000483185
10 *240:58 0.000583623
11 *240:45 0.000518269
12 *240:32 0.000719591
13 *240:14 0.000509319
14 *240:10 0.000385549
15 *1272:A1 *283:56 0
16 *1272:A1 *294:10 0.00150801
17 *240:10 *283:54 8.93953e-05
18 *240:32 *283:54 0.000103991
19 *240:45 *283:54 0.000238391
20 *240:58 *1166:A2 0.000319216
21 *240:58 *244:67 0
22 *240:58 *244:78 8.54857e-06
23 *240:58 *283:54 0.00021632
24 *240:66 *1166:A2 0.000496785
25 *240:66 *1278:A1 0
26 *1166:A1 *240:66 5.70314e-05
27 *1166:A3 *240:66 0.000428433
28 *1166:A4 *240:66 5.59262e-05
29 *1212:A1 *1212:A2 0.000570715
30 *1212:A1 *1318:A4 0.000372597
31 *1268:A1 *240:58 4.83522e-05
32 *1268:A1 *240:66 0.000264627
33 *1270:B *240:66 0.000276943
34 *1278:B1 *1272:A1 7.45086e-05
35 *1278:B1 *240:14 1.07374e-05
36 *1279:A1 *1310:A1 0.000414586
37 *1279:A2 *240:14 2.59527e-05
38 *1318:A1 *240:66 3.01487e-05
39 *1318:A2 *240:66 1.0415e-05
40 *42:42 *1212:A2 0.000200669
41 *42:42 *1318:A4 0.000380305
42 *83:15 *240:66 1.70328e-05
43 *83:26 *240:66 0.000421368
44 *110:25 *1272:A1 0.000112822
45 *110:34 *1272:A1 0.00157855
46 *111:12 *1272:A1 0
47 *111:12 *240:10 4.78286e-05
48 *111:12 *240:14 0
49 *197:16 *1272:A1 3.53416e-05
50 *197:16 *240:14 0
*RES
1 *1353:Q *240:10 10.44 
2 *240:10 *240:14 5.49 
3 *240:14 *1272:A1 11.43 
4 *240:14 *1278:B2 4.5 
5 *240:10 *240:32 0.99 
6 *240:32 *1310:A1 12.06 
7 *240:32 *240:45 2.25 
8 *240:45 *1290:A1 9 
9 *240:45 *240:58 7.38 
10 *240:58 *240:66 9.99 
11 *240:66 *1318:A4 9.99 
12 *240:66 *1212:A2 10.53 
13 *240:58 *1268:A2 4.5 
*END

*D_NET *241 0.00911346
*CONN
*I *1361:I I *D gf180mcu_fd_sc_mcu7t5v0__clkbuf_16
*I *1360:I I *D gf180mcu_fd_sc_mcu7t5v0__clkbuf_16
*I *1358:I I *D gf180mcu_fd_sc_mcu7t5v0__clkbuf_16
*I *1359:I I *D gf180mcu_fd_sc_mcu7t5v0__clkbuf_16
*I *1357:Z O *D gf180mcu_fd_sc_mcu7t5v0__clkbuf_16
*CAP
1 *1361:I 5.28407e-05
2 *1360:I 0.000166317
3 *1358:I 0.000103469
4 *1359:I 0.000113288
5 *1357:Z 0
6 *241:77 0.000632755
7 *241:64 0.000723749
8 *241:53 0.000310152
9 *241:39 0.000915292
10 *241:21 0.000915102
11 *241:11 0.00213926
12 *241:6 0.00052562
13 *1360:I *1335:CLK 5.40705e-05
14 *241:11 *253:12 4.43522e-05
15 *241:21 *1147:I 2.66065e-05
16 *241:21 *1179:A1 7.20436e-05
17 *241:39 *276:84 0
18 *241:64 *1335:CLK 4.7205e-05
19 *241:77 *1316:A1 2.40587e-06
20 *241:77 *1335:CLK 0.000149332
21 *1171:A2 *241:21 0.000332105
22 *1171:A2 *241:39 1.71254e-05
23 *1179:A2 *241:21 3.23563e-06
24 *1180:A3 *241:21 7.79726e-05
25 *1180:A4 *241:21 6.31783e-05
26 *1186:A1 *241:11 0
27 *1187:A2 *241:39 1.51153e-05
28 *1195:A2 *241:11 0.000109117
29 *1195:A2 *241:21 1.78022e-05
30 *1199:A2 *241:21 5.79059e-06
31 *1199:C *1359:I 1.75386e-05
32 *1199:C *241:21 5.74356e-06
33 *1204:B1 *241:21 7.84068e-05
34 *1207:A1 *241:39 0.000140022
35 *1315:A1 *1361:I 0.000110119
36 *1315:A1 *241:77 0.000279014
37 *1317:A1 *1361:I 4.13239e-05
38 *1317:A1 *241:77 3.93913e-05
39 *1365:I *241:39 0
40 *1366:I *241:39 0.000124171
41 *64:6 *241:77 6.76694e-05
42 *64:12 *241:77 3.22122e-05
43 *236:40 *241:39 0.000542553
44 *238:48 *241:21 0
*RES
1 *1357:Z *241:6 9 
2 *241:6 *241:11 3.69 
3 *241:11 *241:21 11.52 
4 *241:21 *1359:I 5.31 
5 *241:11 *241:39 11.43 
6 *241:39 *1358:I 5.31 
7 *1357:Z *241:53 4.5 
8 *241:53 *1360:I 5.76 
9 *241:53 *241:64 0.993214 
10 *241:64 *241:77 14.1879 
11 *241:77 *1361:I 5.24893 
*END

*D_NET *242 0.0206668
*CONN
*I *1354:CLK I *D gf180mcu_fd_sc_mcu7t5v0__dffsnq_1
*I *1343:CLK I *D gf180mcu_fd_sc_mcu7t5v0__dffrnq_1
*I *1340:CLK I *D gf180mcu_fd_sc_mcu7t5v0__dffrnq_1
*I *1341:CLK I *D gf180mcu_fd_sc_mcu7t5v0__dffrnq_1
*I *1339:CLK I *D gf180mcu_fd_sc_mcu7t5v0__dffrnq_1
*I *1338:CLK I *D gf180mcu_fd_sc_mcu7t5v0__dffrnq_1
*I *1337:CLK I *D gf180mcu_fd_sc_mcu7t5v0__dffrnq_1
*I *1344:CLK I *D gf180mcu_fd_sc_mcu7t5v0__dffrnq_1
*I *1342:CLK I *D gf180mcu_fd_sc_mcu7t5v0__dffrnq_1
*I *1362:I I *D gf180mcu_fd_sc_mcu7t5v0__clkbuf_2
*I *1358:Z O *D gf180mcu_fd_sc_mcu7t5v0__clkbuf_16
*CAP
1 *1354:CLK 0
2 *1343:CLK 0.000773982
3 *1340:CLK 0
4 *1341:CLK 0.000587807
5 *1339:CLK 0
6 *1338:CLK 0.000741766
7 *1337:CLK 0
8 *1344:CLK 0
9 *1342:CLK 0.00102523
10 *1362:I 0.000135159
11 *1358:Z 0.000745774
12 *242:65 0.00177796
13 *242:59 0.00195006
14 *242:53 0.00273167
15 *242:49 0.00228468
16 *242:45 0.000442519
17 *242:26 0.00147403
18 *1338:CLK *1220:A1 0
19 *1341:CLK *1228:A1 2.36914e-05
20 *1341:CLK *281:52 0.000560868
21 *1342:CLK *276:10 0
22 *1343:CLK *276:24 0
23 *1343:CLK *276:84 0
24 *242:53 *281:39 0.00172683
25 *242:59 *1339:RN 0.000297236
26 *242:59 *281:52 6.23973e-05
27 *1148:I *242:26 0
28 *1224:A4 *1341:CLK 5.53775e-06
29 *1226:A2 *1341:CLK 0.000853515
30 *1226:A3 *1341:CLK 1.17652e-05
31 *1228:A2 *1341:CLK 0
32 *1235:A2 *1343:CLK 1.19491e-05
33 *1236:A1 *242:26 0.000302284
34 *1337:D *1338:CLK 8.96665e-05
35 *1337:D *242:65 5.97457e-06
36 *1338:D *1338:CLK 0
37 *1340:D *1341:CLK 4.39622e-05
38 *1343:D *1343:CLK 7.01651e-05
39 *1344:D *1342:CLK 5.97457e-06
40 *1344:D *242:26 0.000566284
41 *1365:I *1342:CLK 0.000362665
42 *1365:I *242:26 0.000250411
43 *88:12 *1362:I 0
44 *168:12 *242:26 0.000354738
45 *168:27 *242:26 0.00039023
46 *235:40 *1362:I 0
*RES
1 *1358:Z *1362:I 9.81 
2 *1358:Z *242:26 19.71 
3 *242:26 *1342:CLK 10.89 
4 *242:26 *1344:CLK 4.5 
5 *1342:CLK *242:45 5.85 
6 *242:45 *242:49 6.21 
7 *242:49 *242:53 14.13 
8 *242:53 *242:59 10.8 
9 *242:59 *242:65 11.7 
10 *242:65 *1337:CLK 4.5 
11 *242:65 *1338:CLK 9.63 
12 *242:59 *1339:CLK 9 
13 *242:53 *1341:CLK 9.9 
14 *242:53 *1340:CLK 4.5 
15 *242:49 *1343:CLK 14.13 
16 *242:45 *1354:CLK 4.5 
*END

*D_NET *243 0.0255102
*CONN
*I *1349:CLK I *D gf180mcu_fd_sc_mcu7t5v0__dffrnq_1
*I *1348:CLK I *D gf180mcu_fd_sc_mcu7t5v0__dffrnq_1
*I *1350:CLK I *D gf180mcu_fd_sc_mcu7t5v0__dffrnq_1
*I *1351:CLK I *D gf180mcu_fd_sc_mcu7t5v0__dffrnq_1
*I *1352:CLK I *D gf180mcu_fd_sc_mcu7t5v0__dffrnq_1
*I *1363:I I *D gf180mcu_fd_sc_mcu7t5v0__clkbuf_2
*I *1334:CLK I *D gf180mcu_fd_sc_mcu7t5v0__dffrnq_1
*I *1333:CLK I *D gf180mcu_fd_sc_mcu7t5v0__dffrnq_1
*I *1353:CLK I *D gf180mcu_fd_sc_mcu7t5v0__dffrnq_1
*I *1346:CLK I *D gf180mcu_fd_sc_mcu7t5v0__dffrnq_1
*I *1359:Z O *D gf180mcu_fd_sc_mcu7t5v0__clkbuf_16
*CAP
1 *1349:CLK 0
2 *1348:CLK 0.00109463
3 *1350:CLK 0
4 *1351:CLK 0.000352556
5 *1352:CLK 0.000343502
6 *1363:I 0.000111717
7 *1334:CLK 0.000116446
8 *1333:CLK 0
9 *1353:CLK 0.000704342
10 *1346:CLK 0.000432838
11 *1359:Z 0.000256259
12 *243:112 0.00194425
13 *243:91 0.000849625
14 *243:75 0.00135655
15 *243:71 0.0013712
16 *243:56 0.000998999
17 *243:26 0.00150125
18 *243:16 0.000913357
19 *1334:CLK *254:12 2.59366e-05
20 *1334:CLK *281:102 0.000116594
21 *1346:CLK *276:84 0.000224766
22 *1348:CLK *1349:RN 0
23 *1348:CLK *277:18 0
24 *1348:CLK *277:20 0
25 *1353:CLK *1335:CLK 0
26 *1353:CLK *244:35 0.00037349
27 *243:26 *1335:CLK 0
28 *243:26 *254:12 7.96333e-06
29 *243:26 *281:102 1.17725e-05
30 *243:71 *284:67 0.00126229
31 *243:71 *284:71 3.3721e-05
32 *243:71 *284:75 0.000816457
33 *243:75 *284:75 3.61578e-05
34 *243:112 *1254:A1 0
35 *243:112 *1258:A1 3.94742e-05
36 *243:112 *1351:RN 0.000362737
37 *243:112 *1352:RN 7.43642e-05
38 *1152:I *1363:I 3.98088e-05
39 *1198:B2 *1363:I 8.61061e-05
40 *1243:A2 *243:56 0.000310002
41 *1244:A2 *243:56 0
42 *1246:A2 *243:71 1.4382e-06
43 *1246:A3 *243:71 1.39839e-05
44 *1247:A2 *243:71 0
45 *1261:A3 *1351:CLK 0
46 *1263:A2 *1351:CLK 0.000123639
47 *1263:A2 *1352:CLK 9.34006e-05
48 *1333:D *1353:CLK 7.01651e-05
49 *1333:D *243:26 7.55765e-06
50 *1334:D *243:26 0.000895621
51 *1346:D *1346:CLK 1.07374e-05
52 *1348:D *1348:CLK 3.10003e-05
53 *1349:D *243:112 7.191e-07
54 *1350:D *243:112 9.64609e-05
55 *1351:D *1351:CLK 7.55765e-06
56 *1352:D *1352:CLK 5.3819e-05
57 *26:10 *1346:CLK 0.00011873
58 *94:17 *243:56 0.000593822
59 *96:8 *243:56 0.000164219
60 *168:42 *1363:I 2.40587e-06
61 *168:42 *243:71 2.18208e-05
62 *168:55 *243:71 0
63 *168:66 *243:71 0
64 *172:14 *243:56 0.000189328
65 *225:18 *243:71 0.000364888
66 *225:24 *243:71 0.00306039
67 *225:24 *243:75 0.000484297
68 *230:12 *1352:CLK 0
69 *238:37 *243:71 0.00183634
70 *238:48 *1363:I 0.00050482
71 *238:48 *243:71 6.2979e-05
72 *239:10 *243:56 0.000272679
73 *239:12 *243:56 0.00023184
74 *239:14 *243:56 2.63437e-05
*RES
1 *1359:Z *1346:CLK 11.43 
2 *1359:Z *243:16 4.5 
3 *243:16 *243:26 15.21 
4 *243:26 *1353:CLK 9.63 
5 *243:26 *1333:CLK 4.5 
6 *243:16 *1334:CLK 5.67 
7 *1346:CLK *243:56 17.55 
8 *243:56 *1363:I 6.12 
9 *243:56 *243:71 18.54 
10 *243:71 *243:75 9.45 
11 *243:75 *1352:CLK 7.11 
12 *243:75 *1351:CLK 7.11 
13 *243:71 *243:91 4.5 
14 *243:91 *1350:CLK 4.5 
15 *243:91 *243:112 6.48 
16 *243:112 *1348:CLK 20.88 
17 *243:112 *1349:CLK 4.5 
*END

*D_NET *244 0.0229855
*CONN
*I *1332:CLK I *D gf180mcu_fd_sc_mcu7t5v0__dffsnq_1
*I *1336:CLK I *D gf180mcu_fd_sc_mcu7t5v0__dffrnq_1
*I *1321:CLK I *D gf180mcu_fd_sc_mcu7t5v0__dffrnq_1
*I *1324:CLK I *D gf180mcu_fd_sc_mcu7t5v0__dffrnq_1
*I *1323:CLK I *D gf180mcu_fd_sc_mcu7t5v0__dffrnq_1
*I *1356:CLK I *D gf180mcu_fd_sc_mcu7t5v0__dffsnq_1
*I *1364:I I *D gf180mcu_fd_sc_mcu7t5v0__clkbuf_2
*I *1355:CLK I *D gf180mcu_fd_sc_mcu7t5v0__dffsnq_1
*I *1322:CLK I *D gf180mcu_fd_sc_mcu7t5v0__dffrnq_1
*I *1335:CLK I *D gf180mcu_fd_sc_mcu7t5v0__dffrnq_1
*I *1360:Z O *D gf180mcu_fd_sc_mcu7t5v0__clkbuf_16
*CAP
1 *1332:CLK 0.000384695
2 *1336:CLK 0
3 *1321:CLK 0
4 *1324:CLK 3.44897e-05
5 *1323:CLK 0.00116767
6 *1356:CLK 0
7 *1364:I 0
8 *1355:CLK 3.44897e-05
9 *1322:CLK 0.000594668
10 *1335:CLK 0.00133203
11 *1360:Z 0.000450176
12 *244:107 0.000487657
13 *244:80 0.00169366
14 *244:78 0.00129648
15 *244:69 0.000944318
16 *244:67 0.000400171
17 *244:35 0.00159066
18 *244:27 0.001195
19 *244:12 0.00185784
20 *1323:CLK *1266:A2 2.53995e-05
21 *1323:CLK *256:12 4.90143e-05
22 *1323:CLK *256:16 0.000533051
23 *1332:CLK *278:31 0.000153569
24 *1332:CLK *278:70 0.000197563
25 *1332:CLK *295:23 8.87455e-05
26 *1335:CLK *1345:RN 0.0002942
27 *1335:CLK *253:12 5.01255e-05
28 *244:12 *253:12 0.000266537
29 *244:67 *253:12 0.000297712
30 *244:67 *295:12 2.20741e-05
31 *244:69 *1166:A2 1.06178e-05
32 *244:69 *295:12 1.08206e-05
33 *244:69 *295:23 6.47918e-05
34 *244:78 *1166:A2 0
35 *244:78 *1266:A2 8.48054e-05
36 *244:80 *1266:A2 8.39011e-05
37 *244:107 *295:23 2.03496e-05
38 *1211:A1 *244:35 6.06389e-05
39 *1212:A3 *244:78 4.16602e-05
40 *1268:A1 *244:78 0.000739333
41 *1269:A3 *244:78 2.31089e-05
42 *1288:A1 *1323:CLK 1.47224e-05
43 *1288:A2 *1323:CLK 0
44 *1288:A2 *244:80 0
45 *1289:A2 *244:80 0.000156008
46 *1289:B *1323:CLK 0
47 *1315:A1 *1335:CLK 0.000330453
48 *1319:A3 *1332:CLK 0.000357781
49 *1319:A3 *244:69 0.000220609
50 *1319:A3 *244:78 0.00222125
51 *1319:A3 *244:107 0.000154052
52 *1322:D *1322:CLK 3.55118e-05
53 *1333:D *1335:CLK 9.07783e-05
54 *1335:D *1335:CLK 0
55 *1353:D *244:35 0.000121356
56 *1353:CLK *1335:CLK 0
57 *1353:CLK *244:35 0.00037349
58 *1355:D *1322:CLK 9.08334e-05
59 *1355:D *244:35 7.191e-07
60 *1360:I *1335:CLK 5.40705e-05
61 *1368:I *1332:CLK 0.000364289
62 *42:14 *244:80 9.90362e-06
63 *42:25 *244:78 0.000208349
64 *42:25 *244:80 7.43751e-05
65 *42:38 *244:78 0.000119182
66 *111:12 *1335:CLK 2.49316e-05
67 *111:12 *244:12 7.62514e-05
68 *111:12 *244:35 0.000749856
69 *154:10 *244:78 1.79237e-05
70 *186:10 *244:67 0.000174497
71 *186:10 *244:107 0.000109541
72 *236:12 *1322:CLK 4.76605e-05
73 *240:58 *244:67 0
74 *240:58 *244:78 8.54857e-06
75 *241:64 *1335:CLK 4.7205e-05
76 *241:77 *1335:CLK 0.000149332
77 *243:26 *1335:CLK 0
*RES
1 *1360:Z *244:12 12.69 
2 *244:12 *1335:CLK 20.34 
3 *244:12 *244:27 5.85 
4 *244:27 *244:35 16.92 
5 *244:35 *1322:CLK 8.82 
6 *244:35 *1355:CLK 4.77 
7 *244:27 *1364:I 4.5 
8 *1360:Z *244:67 15.57 
9 *244:67 *244:69 1.53 
10 *244:69 *1356:CLK 4.5 
11 *244:69 *244:78 10.44 
12 *244:78 *244:80 3.87 
13 *244:80 *1323:CLK 23.94 
14 *244:80 *1324:CLK 4.77 
15 *244:78 *1321:CLK 4.5 
16 *244:67 *244:107 1.17 
17 *244:107 *1336:CLK 4.5 
18 *244:107 *1332:CLK 9.63 
*END

*D_NET *245 0.0196429
*CONN
*I *1325:CLK I *D gf180mcu_fd_sc_mcu7t5v0__dffsnq_1
*I *1327:CLK I *D gf180mcu_fd_sc_mcu7t5v0__dffsnq_1
*I *1328:CLK I *D gf180mcu_fd_sc_mcu7t5v0__dffsnq_1
*I *1329:CLK I *D gf180mcu_fd_sc_mcu7t5v0__dffsnq_1
*I *1347:CLK I *D gf180mcu_fd_sc_mcu7t5v0__dffrnq_1
*I *1345:CLK I *D gf180mcu_fd_sc_mcu7t5v0__dffrnq_1
*I *1326:CLK I *D gf180mcu_fd_sc_mcu7t5v0__dffsnq_1
*I *1330:CLK I *D gf180mcu_fd_sc_mcu7t5v0__dffsnq_1
*I *1331:CLK I *D gf180mcu_fd_sc_mcu7t5v0__dffsnq_1
*I *1361:Z O *D gf180mcu_fd_sc_mcu7t5v0__clkbuf_16
*CAP
1 *1325:CLK 0.000562871
2 *1327:CLK 0
3 *1328:CLK 0
4 *1329:CLK 0.000153128
5 *1347:CLK 0
6 *1345:CLK 0.000387507
7 *1326:CLK 5.74829e-05
8 *1330:CLK 0
9 *1331:CLK 0.000417792
10 *1361:Z 0.000295982
11 *245:55 0.000620243
12 *245:51 0.000993226
13 *245:47 0.00138023
14 *245:41 0.001159
15 *245:39 0.00111527
16 *245:28 0.000752925
17 *245:19 0.000622672
18 *245:6 0.000807265
19 *1325:CLK *1325:SETN 0
20 *1325:CLK *282:102 0
21 *1331:CLK *1296:A3 0
22 *1331:CLK *1300:A2 0
23 *1331:CLK *257:29 0
24 *1331:CLK *257:31 0
25 *1331:CLK *284:67 0.00172657
26 *1345:CLK *254:12 0
27 *1345:CLK *281:113 0.00143807
28 *245:6 *1274:A1 8.5874e-05
29 *245:6 *1295:B 0.00097681
30 *245:6 *257:44 8.12023e-06
31 *245:6 *278:91 6.35387e-05
32 *245:19 *1295:B 0.000469308
33 *245:19 *278:91 6.37124e-05
34 *245:28 *1292:I1 2.18454e-05
35 *245:28 *1295:B 6.44696e-05
36 *245:28 *1301:A1 0.000425761
37 *245:28 *269:8 1.39171e-05
38 *245:28 *278:91 0.000201066
39 *245:28 *282:102 2.89427e-06
40 *245:39 *1327:SETN 8.68281e-06
41 *245:39 *269:8 6.0284e-05
42 *245:39 *282:102 6.84043e-05
43 *245:41 *1294:I1 3.58376e-05
44 *245:41 *1328:SETN 0.000409038
45 *245:41 *1403:I 0.000106409
46 *245:41 *282:96 0.00145813
47 *245:41 *282:102 0
48 *245:47 *1294:I1 2.16164e-05
49 *245:47 *1328:SETN 0.000101624
50 *245:51 *281:113 0
51 *245:55 *281:113 3.55431e-05
52 *1241:A2 *1345:CLK 0.000151427
53 *1296:A1 *245:6 0.00110975
54 *1302:B *245:28 0.00037349
55 *1313:A1 *245:6 9.98816e-05
56 *1326:D *245:28 0.000365445
57 *1326:D *245:39 3.01487e-05
58 *1328:D *245:47 0
59 *1345:D *1345:CLK 0.000129286
60 *1347:D *1345:CLK 2.03826e-05
61 *238:12 *1345:CLK 0.000169917
62 *238:20 *1345:CLK 0
*RES
1 *1361:Z *245:6 9.45 
2 *245:6 *1331:CLK 17.91 
3 *245:6 *245:19 1.35 
4 *245:19 *1330:CLK 4.5 
5 *245:19 *245:28 5.4 
6 *245:28 *1326:CLK 4.95 
7 *245:28 *245:39 5.85 
8 *245:39 *245:41 5.49 
9 *245:41 *245:47 10.44 
10 *245:47 *245:51 8.37 
11 *245:51 *245:55 6.21 
12 *245:55 *1345:CLK 18.72 
13 *245:55 *1347:CLK 4.5 
14 *245:51 *1329:CLK 10.17 
15 *245:47 *1328:CLK 4.5 
16 *245:41 *1327:CLK 9 
17 *245:39 *1325:CLK 13.23 
*END

*D_NET *246 0.00993913
*CONN
*I *1303:A1 I *D gf180mcu_fd_sc_mcu7t5v0__nand2_1
*I *1304:A2 I *D gf180mcu_fd_sc_mcu7t5v0__oai211_1
*I *1307:A2 I *D gf180mcu_fd_sc_mcu7t5v0__nand3_1
*I *1298:A2 I *D gf180mcu_fd_sc_mcu7t5v0__nand2_1
*I *1295:A1 I *D gf180mcu_fd_sc_mcu7t5v0__oai21_1
*I *1274:A1 I *D gf180mcu_fd_sc_mcu7t5v0__xnor2_1
*I *1296:A2 I *D gf180mcu_fd_sc_mcu7t5v0__oai31_1
*I *1373:Z O *D gf180mcu_fd_sc_mcu7t5v0__dlyb_1
*CAP
1 *1303:A1 0.000203411
2 *1304:A2 0
3 *1307:A2 0.000273222
4 *1298:A2 0
5 *1295:A1 0
6 *1274:A1 0.00013911
7 *1296:A2 0.00026938
8 *1373:Z 0.000277871
9 *246:29 0.00013911
10 *246:16 0.000630607
11 *246:14 0.000541171
12 *246:12 0.000564806
13 *246:10 0.000306394
14 *246:8 0.000676037
15 *1274:A1 *1273:A1 0.00144739
16 *1296:A2 *1295:B 0.000499457
17 *1296:A2 *1313:B 0
18 *1303:A1 *257:10 0.000105273
19 *1303:A1 *273:10 1.47172e-05
20 *1307:A2 *1307:A3 0.000222861
21 *246:8 *257:10 3.97987e-05
22 *246:8 *284:61 0.000377955
23 *246:10 *257:10 0.000200192
24 *246:10 *257:14 3.16214e-05
25 *246:10 *295:36 0.000174497
26 *246:12 *295:36 0.000684683
27 *246:14 *1300:A2 5.22248e-06
28 *246:14 *278:70 0
29 *246:14 *295:36 0.000729309
30 *246:16 *1300:A2 2.16164e-05
31 *246:16 *1313:B 0
32 *246:16 *257:31 0
33 *246:16 *278:70 0
34 rx_data_o[7] *246:8 0
35 *1296:A1 *1274:A1 0.00069634
36 *1297:I0 *1296:A2 5.36871e-05
37 *1303:A2 *1303:A1 0.000365454
38 *1303:A2 *246:8 4.36647e-05
39 *1304:C *1303:A1 3.00535e-05
40 *1304:C *246:8 4.6613e-06
41 *1313:A1 *1274:A1 8.36919e-05
42 *245:6 *1274:A1 8.5874e-05
*RES
1 *1373:Z *246:8 11.79 
2 *246:8 *246:10 1.89 
3 *246:10 *246:12 1.71 
4 *246:12 *246:14 2.07 
5 *246:14 *246:16 2.43 
6 *246:16 *1296:A2 11.16 
7 *246:16 *246:29 4.5 
8 *246:29 *1274:A1 8.37 
9 *246:29 *1295:A1 4.5 
10 *246:14 *1298:A2 9 
11 *246:12 *1307:A2 11.25 
12 *246:10 *1304:A2 9 
13 *246:8 *1303:A1 10.98 
*END

*D_NET *247 0.00160385
*CONN
*I *1176:A1 I *D gf180mcu_fd_sc_mcu7t5v0__xor2_1
*I *1192:A1 I *D gf180mcu_fd_sc_mcu7t5v0__xor2_1
*I *1374:Z O *D gf180mcu_fd_sc_mcu7t5v0__dlyb_1
*CAP
1 *1176:A1 0.000201469
2 *1192:A1 0.000178201
3 *1374:Z 0.00021525
4 *247:8 0.00059492
5 *1176:A1 *248:14 0
6 *1192:A1 *1161:A2 2.30981e-05
7 *247:8 *1161:A2 0.000155203
8 *1164:A2 *1192:A1 0
9 *1200:A2 *1176:A1 0.000169927
10 *1200:A2 *1192:A1 5.50498e-05
11 *1219:A1 *1192:A1 1.07374e-05
12 *1219:A2 *1192:A1 0
13 *1389:I *247:8 0
14 *224:56 *1176:A1 0
*RES
1 *1374:Z *247:8 6.3 
2 *247:8 *1192:A1 5.85 
3 *247:8 *1176:A1 15.21 
*END

*D_NET *248 0.00835208
*CONN
*I *1198:A1 I *D gf180mcu_fd_sc_mcu7t5v0__aoi22_1
*I *1164:A1 I *D gf180mcu_fd_sc_mcu7t5v0__xor2_1
*I *1142:I I *D gf180mcu_fd_sc_mcu7t5v0__clkinv_1
*I *1375:Z O *D gf180mcu_fd_sc_mcu7t5v0__dlyb_1
*CAP
1 *1198:A1 0.00111445
2 *1164:A1 0
3 *1142:I 0.000636101
4 *1375:Z 0.00237055
5 *248:14 0.00189221
6 *1142:I *250:8 7.08532e-05
7 *1142:I *250:23 2.16164e-05
8 *1198:A1 *1179:A1 0
9 *1198:A1 *279:18 0
10 *1198:A1 *285:10 0
11 *1198:A1 *286:10 0.000110921
12 *248:14 *1161:A2 9.04539e-05
13 *248:14 *250:8 0.000163162
14 *248:14 *251:10 4.83522e-05
15 *248:14 *252:12 4.83522e-05
16 *248:14 *285:10 4.83522e-05
17 *1161:A1 *248:14 0.00023506
18 *1176:A1 *248:14 0
19 *1176:A2 *1142:I 0
20 *1177:A1 *248:14 2.59366e-05
21 *1177:A2 *248:14 0
22 *1177:A4 *248:14 0.000227025
23 *1189:A2 *248:14 0
24 *1190:A1 *1142:I 0.000137004
25 *1190:A2 *1142:I 0
26 *1193:A2 *1198:A1 1.56862e-05
27 *1200:A1 *1198:A1 0
28 *1200:A2 *248:14 0
29 *1200:A3 *248:14 0.000197305
30 *1201:A1 *1198:A1 0
31 *1203:A2 *1142:I 0.000588693
32 *1377:I *248:14 0
33 *1378:I *248:14 0
34 *1379:I *248:14 0
35 *1391:I *248:14 0
36 *1395:I *248:14 0
37 *231:46 *1142:I 0
38 *235:46 *1142:I 0.000310002
*RES
1 *1375:Z *248:14 23.49 
2 *248:14 *1142:I 18.99 
3 *248:14 *1164:A1 4.5 
4 *1375:Z *1198:A1 25.2 
*END

*D_NET *249 0.00781479
*CONN
*I *1172:A1 I *D gf180mcu_fd_sc_mcu7t5v0__xor2_1
*I *1188:A1 I *D gf180mcu_fd_sc_mcu7t5v0__xnor2_1
*I *1376:Z O *D gf180mcu_fd_sc_mcu7t5v0__dlyb_1
*CAP
1 *1172:A1 3.44897e-05
2 *1188:A1 0.000423119
3 *1376:Z 0.00192827
4 *249:20 0.00238588
5 *249:20 *1341:RN 0.000156209
6 *249:20 *281:33 0.000163737
7 *1144:I *1188:A1 5.46315e-05
8 *1172:A2 *249:20 0.000233306
9 *1231:A1 *249:20 4.74921e-05
10 *1231:B *249:20 3.22122e-05
11 *1237:A4 *1172:A1 0
12 *1237:A4 *249:20 0.00037349
13 *159:27 *249:20 0
14 *233:6 *249:20 0.000101167
15 *234:8 *249:20 0.00091015
16 *235:6 *249:20 0.000224482
17 *235:25 *249:20 0.000379778
18 *235:40 *1188:A1 2.27485e-05
19 *235:40 *249:20 0.000343622
*RES
1 *1376:Z *249:20 30.6 
2 *249:20 *1188:A1 17.01 
3 *249:20 *1172:A1 4.77 
*END

*D_NET *250 0.00569554
*CONN
*I *1202:A1 I *D gf180mcu_fd_sc_mcu7t5v0__aoi22_1
*I *1204:A1 I *D gf180mcu_fd_sc_mcu7t5v0__oai22_1
*I *1163:A1 I *D gf180mcu_fd_sc_mcu7t5v0__xor2_1
*I *1377:Z O *D gf180mcu_fd_sc_mcu7t5v0__dlyb_1
*CAP
1 *1202:A1 0
2 *1204:A1 2.73002e-05
3 *1163:A1 4.0281e-05
4 *1377:Z 0.000648261
5 *250:23 0.000504887
6 *250:8 0.00116613
7 *1204:A1 *1162:A1 0.000572994
8 *250:8 *251:10 0
9 *1142:I *250:8 7.08532e-05
10 *1142:I *250:23 2.16164e-05
11 *1163:A2 *1163:A1 1.61174e-05
12 *1177:A1 *250:8 0.000227493
13 *1181:A1 *250:8 0.000261076
14 *1181:A1 *250:23 0.000513075
15 *1190:B1 *1163:A1 2.40933e-06
16 *1200:A4 *1204:A1 2.35868e-05
17 *1203:A2 *250:23 0.000257978
18 *1203:A4 *250:23 0.000405595
19 *1204:A2 *1204:A1 0.000310002
20 *1206:A2 *1204:A1 9.22066e-05
21 *1207:A4 *250:23 0.000227863
22 *88:12 *250:23 0.000142658
23 *235:46 *250:23 0
24 *248:14 *250:8 0.000163162
*RES
1 *1377:Z *250:8 14.13 
2 *250:8 *1163:A1 9.27 
3 *250:8 *250:23 11.34 
4 *250:23 *1204:A1 15.03 
5 *250:23 *1202:A1 4.5 
*END

*D_NET *251 0.008621
*CONN
*I *1205:A1 I *D gf180mcu_fd_sc_mcu7t5v0__oai222_1
*I *1162:A1 I *D gf180mcu_fd_sc_mcu7t5v0__xor2_1
*I *1202:B1 I *D gf180mcu_fd_sc_mcu7t5v0__aoi22_1
*I *1378:Z O *D gf180mcu_fd_sc_mcu7t5v0__dlyb_1
*CAP
1 *1205:A1 0
2 *1162:A1 0.000231328
3 *1202:B1 1.53621e-05
4 *1378:Z 0.000738471
5 *251:16 0.000446334
6 *251:10 0.000938116
7 *251:10 *252:12 0
8 *1163:A2 *251:10 0.000146484
9 *1177:A1 *251:10 2.32916e-05
10 *1180:A2 *1162:A1 0.00026803
11 *1181:A1 *1162:A1 0.00074423
12 *1181:A1 *251:10 0.000176244
13 *1181:A1 *251:16 0.000198972
14 *1199:A2 *1162:A1 6.3395e-05
15 *1200:A2 *251:10 0
16 *1200:A4 *1162:A1 1.55322e-05
17 *1200:A4 *251:10 0.00213137
18 *1200:A4 *251:16 0.000126935
19 *1202:B2 *251:16 0.000601531
20 *1203:A3 *1202:B1 9.20679e-05
21 *1203:A4 *1202:B1 8.49208e-05
22 *1204:A1 *1162:A1 0.000572994
23 *1206:A2 *1162:A1 1.86249e-05
24 *1206:A2 *251:16 5.00297e-05
25 *89:29 *251:10 3.19635e-05
26 *89:29 *251:16 0.000447756
27 *237:22 *1162:A1 0.000408665
28 *248:14 *251:10 4.83522e-05
29 *250:8 *251:10 0
*RES
1 *1378:Z *251:10 16.56 
2 *251:10 *251:16 3.69 
3 *251:16 *1202:B1 9.27 
4 *251:16 *1162:A1 14.04 
5 *251:10 *1205:A1 9 
*END

*D_NET *252 0.00265592
*CONN
*I *1171:A1 I *D gf180mcu_fd_sc_mcu7t5v0__xor2_1
*I *1146:I I *D gf180mcu_fd_sc_mcu7t5v0__clkinv_1
*I *1379:Z O *D gf180mcu_fd_sc_mcu7t5v0__dlyb_1
*CAP
1 *1171:A1 0.000168143
2 *1146:I 0
3 *1379:Z 0.000751444
4 *252:12 0.000919587
5 *252:12 *289:10 0
6 *1171:A2 *1171:A1 2.84698e-05
7 *1184:A1 *1171:A1 1.56862e-05
8 *1184:A2 *1171:A1 5.69514e-05
9 *1184:A3 *252:12 0.000421685
10 *1187:A3 *252:12 8.56272e-05
11 *1200:A3 *252:12 2.30981e-05
12 *1200:A4 *252:12 5.32785e-05
13 *1201:A4 *252:12 4.19004e-05
14 *1205:C1 *1171:A1 4.16932e-05
15 *248:14 *252:12 4.83522e-05
16 *251:10 *252:12 0
*RES
1 *1379:Z *252:12 18.54 
2 *252:12 *1146:I 4.5 
3 *252:12 *1171:A1 5.85 
*END

*D_NET *253 0.00883495
*CONN
*I *1185:A1 I *D gf180mcu_fd_sc_mcu7t5v0__xor2_1
*I *1195:A1 I *D gf180mcu_fd_sc_mcu7t5v0__xor2_1
*I *1380:Z O *D gf180mcu_fd_sc_mcu7t5v0__dlyb_1
*CAP
1 *1185:A1 0.000207988
2 *1195:A1 5.37346e-05
3 *1380:Z 0.0025711
4 *253:12 0.00283282
5 *1185:A1 *281:102 4.47007e-05
6 *1195:A1 *281:102 1.49663e-05
7 *253:12 *1267:A2 0.000110107
8 *253:12 *1311:I1 0.000249124
9 *253:12 *1336:RN 0.000155486
10 *253:12 *284:31 3.93918e-05
11 *253:12 *290:8 0.00024146
12 *253:12 *295:12 0
13 *1165:A1 *253:12 0.000156575
14 *1185:A2 *1185:A1 0.00028281
15 *1185:A2 *1195:A1 0.000106324
16 *1310:A2 *253:12 5.28753e-05
17 *1320:A1 *253:12 0.000309993
18 *1333:D *253:12 6.30125e-05
19 *1335:CLK *253:12 5.01255e-05
20 *84:26 *253:12 0.000207866
21 *168:27 *1185:A1 1.19491e-05
22 *186:10 *253:12 0.000437789
23 *195:8 *253:12 2.61472e-05
24 *241:11 *253:12 4.43522e-05
25 *244:12 *253:12 0.000266537
26 *244:67 *253:12 0.000297712
*RES
1 *1380:Z *253:12 35.46 
2 *253:12 *1195:A1 5.13 
3 *253:12 *1185:A1 6.57 
*END

*D_NET *254 0.00985133
*CONN
*I *1178:A1 I *D gf180mcu_fd_sc_mcu7t5v0__xor2_1
*I *1147:I I *D gf180mcu_fd_sc_mcu7t5v0__clkinv_1
*I *1381:Z O *D gf180mcu_fd_sc_mcu7t5v0__dlyb_1
*CAP
1 *1178:A1 0
2 *1147:I 0.000222226
3 *1381:Z 0.00262107
4 *254:12 0.0028433
5 *254:12 *281:102 0
6 *254:12 *281:113 0
7 *1170:A1 *1147:I 0.000154129
8 *1170:A1 *254:12 0.00109115
9 *1170:A2 *254:12 0.00125447
10 *1178:A2 *1147:I 0.00023712
11 *1180:A3 *1147:I 1.0415e-05
12 *1186:A1 *254:12 4.82191e-05
13 *1240:A2 *254:12 0.000862684
14 *1241:A2 *254:12 5.30888e-06
15 *1334:CLK *254:12 2.59366e-05
16 *1345:D *254:12 6.14858e-05
17 *1345:CLK *254:12 0
18 *1347:D *254:12 0.000151427
19 *1366:I *254:12 0.000113357
20 *168:27 *254:12 2.36914e-05
21 *238:12 *254:12 9.07674e-05
22 *241:21 *1147:I 2.66065e-05
23 *243:26 *254:12 7.96333e-06
*RES
1 *1381:Z *254:12 31.77 
2 *254:12 *1147:I 11.34 
3 *254:12 *1178:A1 9 
*END

*D_NET *255 0.00586606
*CONN
*I *1194:A1 I *D gf180mcu_fd_sc_mcu7t5v0__aoi22_1
*I *1149:I I *D gf180mcu_fd_sc_mcu7t5v0__clkinv_1
*I *1382:Z O *D gf180mcu_fd_sc_mcu7t5v0__dlyb_1
*CAP
1 *1194:A1 0
2 *1149:I 0.000128613
3 *1382:Z 0.0016079
4 *255:14 0.00173651
5 *255:14 *1191:A1 0.000314837
6 *255:14 *1197:A1 0
7 *255:14 *279:12 0
8 *255:14 *287:12 0.000389293
9 *1194:A2 *1149:I 3.55118e-05
10 *1194:A2 *255:14 0.000575844
11 *1194:B2 *1149:I 1.07374e-05
12 *1194:B2 *255:14 0.000105262
13 *1197:A2 *255:14 0
14 *1199:C *255:14 0
15 *1203:A3 *1149:I 0.000294431
16 *1393:I *255:14 5.54456e-05
17 *226:30 *1149:I 9.71964e-06
18 *229:27 *255:14 0.000183662
19 *230:12 *255:14 0
20 *230:32 *255:14 0
21 *238:37 *255:14 1.23607e-05
22 *238:48 *1149:I 8.93743e-05
23 *239:14 *255:14 1.3026e-05
24 *239:33 *255:14 0.000303527
*RES
1 *1382:Z *255:14 27.27 
2 *255:14 *1149:I 5.94 
3 *255:14 *1194:A1 4.5 
*END

*D_NET *256 0.0117353
*CONN
*I *1266:A2 I *D gf180mcu_fd_sc_mcu7t5v0__nand2_1
*I *1288:B I *D gf180mcu_fd_sc_mcu7t5v0__oai21_1
*I *1286:A1 I *D gf180mcu_fd_sc_mcu7t5v0__and2_1
*I *1155:I I *D gf180mcu_fd_sc_mcu7t5v0__clkinv_1
*I *1383:Z O *D gf180mcu_fd_sc_mcu7t5v0__dlyb_1
*CAP
1 *1266:A2 0.00207468
2 *1288:B 0
3 *1286:A1 5.84281e-05
4 *1155:I 0.00039775
5 *1383:Z 0.000516097
6 *256:16 0.000959302
7 *256:12 0.000675549
8 *256:10 0.0027632
9 *1155:I *1265:A2 3.1104e-05
10 *1155:I *1354:SETN 0.000775545
11 *1266:A2 *1214:A1 0
12 *1266:A2 *1270:A1 0
13 *256:10 *1372:I 5.82886e-05
14 *256:10 *283:10 0.000361449
15 *256:10 *283:34 0.000169462
16 *256:12 *283:10 0.00029203
17 *256:16 *1354:SETN 0.000749824
18 *256:16 *283:10 0.000419755
19 *1212:A3 *1266:A2 0.000169925
20 *1215:A3 *1266:A2 2.37622e-05
21 *1269:A2 *1266:A2 5.22939e-05
22 *1269:A3 *1266:A2 0.000119182
23 *1270:A2 *1266:A2 0.000119192
24 *1271:I *1266:A2 0
25 *1319:A3 *1266:A2 5.34657e-05
26 *1321:D *1266:A2 2.03826e-05
27 *1323:CLK *1266:A2 2.53995e-05
28 *1323:CLK *256:12 4.90143e-05
29 *1323:CLK *256:16 0.000533051
30 *1386:I *256:10 0
31 *154:10 *1266:A2 9.85004e-05
32 *244:78 *1266:A2 8.48054e-05
33 *244:80 *1266:A2 8.39011e-05
*RES
1 *1383:Z *256:10 13.5 
2 *256:10 *256:12 1.89 
3 *256:12 *256:16 7.74 
4 *256:16 *1155:I 12.42 
5 *256:16 *1286:A1 9.27 
6 *256:12 *1288:B 9 
7 *256:10 *1266:A2 23.58 
*END

*D_NET *257 0.0110365
*CONN
*I *1304:B I *D gf180mcu_fd_sc_mcu7t5v0__oai211_1
*I *1299:A1 I *D gf180mcu_fd_sc_mcu7t5v0__nor2_1
*I *1300:A1 I *D gf180mcu_fd_sc_mcu7t5v0__aoi21_1
*I *1295:A2 I *D gf180mcu_fd_sc_mcu7t5v0__oai21_1
*I *1273:A1 I *D gf180mcu_fd_sc_mcu7t5v0__xnor2_1
*I *1296:A3 I *D gf180mcu_fd_sc_mcu7t5v0__oai31_1
*I *1307:A3 I *D gf180mcu_fd_sc_mcu7t5v0__nand3_1
*I *1384:Z O *D gf180mcu_fd_sc_mcu7t5v0__dlyb_1
*CAP
1 *1304:B 1.86202e-05
2 *1299:A1 0
3 *1300:A1 8.10289e-05
4 *1295:A2 0
5 *1273:A1 0.000233078
6 *1296:A3 0.000283248
7 *1307:A3 0.000293067
8 *1384:Z 0.000267772
9 *257:44 0.000276622
10 *257:31 0.000564364
11 *257:29 0.0004403
12 *257:25 0.000317376
13 *257:14 0.000585333
14 *257:10 0.000382983
15 *1273:A1 *278:91 0.000229163
16 *1296:A3 *284:67 0
17 *1300:A1 *1300:A2 0.000207343
18 *1304:B *1291:S 9.84908e-05
19 *1304:B *1307:A1 3.01487e-05
20 *1307:A3 *278:70 0.000436469
21 *257:10 *1300:A2 9.58064e-05
22 *257:10 *273:10 1.94121e-05
23 *257:14 *1300:A2 0.000240911
24 *257:14 *295:36 0.00104139
25 *257:29 *1300:A2 0.00056252
26 *257:31 *1300:A2 0.000174506
27 *257:44 *278:91 0.000499457
28 *1274:A1 *1273:A1 0.00144739
29 *1277:A1 *1273:A1 0.000365445
30 *1296:A1 *1273:A1 0.000539318
31 *1296:A1 *257:44 2.9185e-05
32 *1296:B *257:44 0.000302466
33 *1299:A2 *1307:A3 7.55765e-06
34 *1299:A2 *257:25 4.0497e-05
35 *1303:A1 *257:10 0.000105273
36 *1303:A2 *257:10 1.27836e-05
37 *1304:C *257:10 4.39741e-05
38 *1306:A2 *1304:B 1.0415e-05
39 *1307:A2 *1307:A3 0.000222861
40 *1313:A1 *1273:A1 6.99911e-06
41 *1331:CLK *1296:A3 0
42 *1331:CLK *257:29 0
43 *1331:CLK *257:31 0
44 *1368:I *1300:A1 0.000207343
45 *1368:I *1307:A3 3.58155e-05
46 *245:6 *257:44 8.12023e-06
47 *246:8 *257:10 3.97987e-05
48 *246:10 *257:10 0.000200192
49 *246:10 *257:14 3.16214e-05
50 *246:16 *257:31 0
*RES
1 *1384:Z *257:10 11.34 
2 *257:10 *257:14 7.29 
3 *257:14 *1307:A3 7.47 
4 *257:14 *257:25 1.26 
5 *257:25 *257:29 6.03 
6 *257:29 *257:31 1.89 
7 *257:31 *1296:A3 10.53 
8 *257:31 *257:44 5.85 
9 *257:44 *1273:A1 9.9 
10 *257:44 *1295:A2 4.5 
11 *257:29 *1300:A1 10.35 
12 *257:25 *1299:A1 4.5 
13 *257:10 *1304:B 9.27 
*END

*D_NET *258 0.00246386
*CONN
*I *1157:I I *D gf180mcu_fd_sc_mcu7t5v0__clkinv_1
*I *1280:A1 I *D gf180mcu_fd_sc_mcu7t5v0__nand2_1
*I *1385:Z O *D gf180mcu_fd_sc_mcu7t5v0__dlyb_1
*CAP
1 *1157:I 0
2 *1280:A1 0.000228231
3 *1385:Z 0.000240798
4 *258:8 0.000469029
5 *1280:A1 *1281:A1 0.000111971
6 *1280:A1 *262:14 3.37055e-05
7 *258:8 *1281:A1 5.13763e-05
8 *258:8 *1396:I 0.00070078
9 *1284:B *1280:A1 7.90911e-06
10 *42:14 *258:8 0.00052094
11 *43:14 *1280:A1 0
12 *197:39 *1280:A1 5.90118e-05
13 *197:39 *258:8 4.01071e-05
*RES
1 *1385:Z *258:8 13.23 
2 *258:8 *1280:A1 10.8 
3 *258:8 *1157:I 9 
*END

*D_NET *259 0.00216078
*CONN
*I *1372:I I *D gf180mcu_fd_sc_mcu7t5v0__dlyb_1
*I *1386:Z O *D gf180mcu_fd_sc_mcu7t5v0__dlyb_1
*CAP
1 *1372:I 0.000563847
2 *1386:Z 0.000563847
3 *1372:I *1371:I 0.000974797
4 *1383:I *1372:I 0
5 *1386:I *1372:I 0
6 *256:10 *1372:I 5.82886e-05
*RES
1 *1386:Z *1372:I 13.77 
*END

*D_NET *260 0.00128479
*CONN
*I *1264:A2 I *D gf180mcu_fd_sc_mcu7t5v0__or2_1
*I *1387:Z O *D gf180mcu_fd_sc_mcu7t5v0__dlyb_1
*CAP
1 *1264:A2 0.000642397
2 *1387:Z 0.000642397
*RES
1 *1387:Z *1264:A2 22.14 
*END

*D_NET *261 0.00158209
*CONN
*I *1214:A1 I *D gf180mcu_fd_sc_mcu7t5v0__and2_1
*I *1215:A2 I *D gf180mcu_fd_sc_mcu7t5v0__nor3_1
*I *1388:Z O *D gf180mcu_fd_sc_mcu7t5v0__dlyb_1
*CAP
1 *1214:A1 5.74543e-05
2 *1215:A2 0.000103166
3 *1388:Z 4.0683e-05
4 *261:8 0.000201303
5 *1214:A1 *1214:A2 0.000557083
6 *1214:A1 *1398:I 0.00035741
7 *1214:A1 *291:14 2.93938e-05
8 *1214:A1 *291:21 3.97987e-05
9 *1215:A2 *291:14 5.92385e-05
10 *261:8 *291:14 5.53168e-05
11 *1216:A2 *1215:A2 4.49639e-05
12 *1216:A2 *261:8 2.78496e-05
13 *1266:A2 *1214:A1 0
14 *154:10 *1215:A2 8.43025e-06
*RES
1 *1388:Z *261:8 9.45 
2 *261:8 *1215:A2 9.81 
3 *261:8 *1214:A1 10.53 
*END

*D_NET *262 0.0106948
*CONN
*I *1278:A1 I *D gf180mcu_fd_sc_mcu7t5v0__oai22_1
*I *1396:I I *D gf180mcu_fd_sc_mcu7t5v0__dlyb_1
*I *1281:A1 I *D gf180mcu_fd_sc_mcu7t5v0__nand2_1
*I *1160:ZN O *D gf180mcu_fd_sc_mcu7t5v0__nand2_1
*CAP
1 *1278:A1 0.000661892
2 *1396:I 0.000392429
3 *1281:A1 0.000215575
4 *1160:ZN 0.000282939
5 *262:14 0.00114842
6 *262:8 0.00148525
7 *1278:A1 *1141:I 5.41256e-05
8 *1278:A1 *1166:A2 0
9 *1278:A1 *283:54 0.000324046
10 *1278:A1 *294:10 8.02683e-05
11 *1281:A1 *1369:I 0.000224708
12 *1396:I *1369:I 0.000594985
13 *1396:I *1371:I 3.11112e-05
14 *1166:A1 *1278:A1 3.36658e-05
15 *1167:A1 *1396:I 0.000208378
16 *1212:A1 *262:14 0.000199673
17 *1269:A1 *1278:A1 0
18 *1278:A2 *1278:A1 0.000380315
19 *1280:A1 *1281:A1 0.000111971
20 *1280:A1 *262:14 3.37055e-05
21 *1280:A2 *262:14 0.000198568
22 *1283:A2 *1281:A1 8.62821e-06
23 *1284:B *1281:A1 0.000315591
24 *1284:B *262:14 0
25 *1285:I0 *1281:A1 1.86887e-06
26 *1385:I *1396:I 0.000393153
27 *41:55 *1396:I 0.000244819
28 *41:55 *262:14 0.000194859
29 *43:22 *262:14 0.000372891
30 *43:29 *262:14 0.000178382
31 *83:15 *262:14 5.30888e-06
32 *83:26 *1278:A1 0
33 *83:26 *262:8 0.000596255
34 *83:26 *262:14 0
35 *85:8 *1278:A1 0.000309993
36 *194:19 *1278:A1 0.000400744
37 *194:19 *262:14 0.000214896
38 *197:39 *1281:A1 4.32329e-05
39 *240:66 *1278:A1 0
40 *258:8 *1281:A1 5.13763e-05
41 *258:8 *1396:I 0.00070078
*RES
1 *1160:ZN *262:8 7.2 
2 *262:8 *262:14 10.26 
3 *262:14 *1281:A1 11.88 
4 *262:14 *1396:I 16.11 
5 *262:8 *1278:A1 20.7 
*END

*D_NET *263 0.00222552
*CONN
*I *1397:I I *D gf180mcu_fd_sc_mcu7t5v0__dlyb_1
*I *1214:Z O *D gf180mcu_fd_sc_mcu7t5v0__and2_1
*CAP
1 *1397:I 0.000516643
2 *1214:Z 0.000516643
3 *1397:I *1399:I 0.000127736
4 *1397:I *283:48 0.000256384
5 *1397:I *284:31 0.000379682
6 *1216:A1 *1397:I 0.000428433
*RES
1 *1214:Z *1397:I 14.76 
*END

*D_NET *264 0.0012025
*CONN
*I *1398:I I *D gf180mcu_fd_sc_mcu7t5v0__dlyb_1
*I *1215:ZN O *D gf180mcu_fd_sc_mcu7t5v0__nor3_1
*CAP
1 *1398:I 0.000278024
2 *1215:ZN 0.000278024
3 *1398:I *291:14 0.000145193
4 *1214:A1 *1398:I 0.00035741
5 *1271:I *1398:I 0.000143853
*RES
1 *1215:ZN *1398:I 20.88 
*END

*D_NET *265 0.00048919
*CONN
*I *1399:I I *D gf180mcu_fd_sc_mcu7t5v0__dlyb_1
*I *1216:ZN O *D gf180mcu_fd_sc_mcu7t5v0__nor2_1
*CAP
1 *1399:I 2.94943e-05
2 *1216:ZN 2.94943e-05
3 *1399:I *284:31 0.000302466
4 *1397:I *1399:I 0.000127736
*RES
1 *1216:ZN *1399:I 9.81 
*END

*D_NET *266 0.00198226
*CONN
*I *1400:I I *D gf180mcu_fd_sc_mcu7t5v0__dlyb_1
*I *1291:I1 I *D gf180mcu_fd_sc_mcu7t5v0__mux2_2
*I *1325:Q O *D gf180mcu_fd_sc_mcu7t5v0__dffsnq_1
*CAP
1 *1400:I 0.000126696
2 *1291:I1 7.84555e-05
3 *1325:Q 0.000317077
4 *266:10 0.000522228
5 *1291:I1 *1325:SETN 0
6 *1291:I1 *1401:I 0.000223407
7 *1400:I *1325:SETN 0
8 *1400:I *1401:I 0.000551049
9 *266:10 *1325:SETN 4.90143e-05
10 rx_data_o[0] *1400:I 0
11 rx_data_o[0] *266:10 4.01448e-05
12 *1325:D *266:10 7.41861e-05
*RES
1 *1325:Q *266:10 16.47 
2 *266:10 *1291:I1 5.13 
3 *266:10 *1400:I 6.03 
*END

*D_NET *267 0.00650498
*CONN
*I *1401:I I *D gf180mcu_fd_sc_mcu7t5v0__dlyb_1
*I *1291:I0 I *D gf180mcu_fd_sc_mcu7t5v0__mux2_2
*I *1292:I1 I *D gf180mcu_fd_sc_mcu7t5v0__mux2_2
*I *1326:Q O *D gf180mcu_fd_sc_mcu7t5v0__dffsnq_1
*CAP
1 *1401:I 0.000596838
2 *1291:I0 0
3 *1292:I1 0.0004585
4 *1326:Q 4.64589e-05
5 *267:23 0.000665259
6 *267:8 0.00057338
7 *1292:I1 *1293:S 9.0531e-06
8 *1292:I1 *1325:SETN 0.000572789
9 *1292:I1 *1402:I 3.44263e-05
10 *1292:I1 *269:8 0.000425752
11 *1292:I1 *269:19 1.47172e-05
12 *1292:I1 *278:91 0.000262024
13 *1292:I1 *282:102 0.00124976
14 *1401:I *1291:S 1.0415e-05
15 *1401:I *1325:SETN 0.000382875
16 *267:8 *1291:S 0
17 *267:8 *1330:SETN 0
18 *267:23 *1325:SETN 0.000393153
19 rx_data_o[1] *1401:I 1.32722e-05
20 *1291:I1 *1401:I 0.000223407
21 *1400:I *1401:I 0.000551049
22 *245:28 *1292:I1 2.18454e-05
*RES
1 *1326:Q *267:8 9.27 
2 *267:8 *1292:I1 15.39 
3 *267:8 *267:23 0.99 
4 *267:23 *1291:I0 9 
5 *267:23 *1401:I 14.22 
*END

*D_NET *268 0.0011508
*CONN
*I *1161:A2 I *D gf180mcu_fd_sc_mcu7t5v0__xor2_1
*I *1389:Z O *D gf180mcu_fd_sc_mcu7t5v0__dlyb_1
*CAP
1 *1161:A2 0.000392367
2 *1389:Z 0.000392367
3 *1164:A2 *1161:A2 5.42456e-05
4 *1177:A2 *1161:A2 4.30692e-05
5 *1192:A1 *1161:A2 2.30981e-05
6 *1200:A2 *1161:A2 0
7 *247:8 *1161:A2 0.000155203
8 *248:14 *1161:A2 9.04539e-05
*RES
1 *1389:Z *1161:A2 12.42 
*END

*D_NET *269 0.00534173
*CONN
*I *1402:I I *D gf180mcu_fd_sc_mcu7t5v0__dlyb_1
*I *1292:I0 I *D gf180mcu_fd_sc_mcu7t5v0__mux2_2
*I *1293:I1 I *D gf180mcu_fd_sc_mcu7t5v0__mux2_2
*I *1327:Q O *D gf180mcu_fd_sc_mcu7t5v0__dffsnq_1
*CAP
1 *1402:I 0.000762044
2 *1292:I0 3.65969e-05
3 *1293:I1 0.000398454
4 *1327:Q 0.000233941
5 *269:19 0.000935527
6 *269:8 0.000769281
7 *1292:I0 *278:91 1.39839e-05
8 *1293:I1 *1293:I0 0
9 *1293:I1 *1293:S 0.00139553
10 *1402:I *1330:SETN 0
11 *269:19 *1293:S 0.00015651
12 *1292:I1 *1402:I 3.44263e-05
13 *1292:I1 *269:8 0.000425752
14 *1292:I1 *269:19 1.47172e-05
15 *1326:D *269:8 9.07674e-05
16 *245:28 *269:8 1.39171e-05
17 *245:39 *269:8 6.0284e-05
*RES
1 *1327:Q *269:8 11.25 
2 *269:8 *1293:I1 13.77 
3 *269:8 *269:19 0.99 
4 *269:19 *1292:I0 9.27 
5 *269:19 *1402:I 13.86 
*END

*D_NET *270 0.00380416
*CONN
*I *1403:I I *D gf180mcu_fd_sc_mcu7t5v0__dlyb_1
*I *1294:I1 I *D gf180mcu_fd_sc_mcu7t5v0__mux2_2
*I *1293:I0 I *D gf180mcu_fd_sc_mcu7t5v0__mux2_2
*I *1328:Q O *D gf180mcu_fd_sc_mcu7t5v0__dffsnq_1
*CAP
1 *1403:I 0.000209507
2 *1294:I1 0.000242586
3 *1293:I0 0.000301925
4 *1328:Q 0
5 *270:21 0.000664416
6 *270:4 0.000514248
7 *1293:I0 *1293:S 1.61174e-05
8 *1293:I0 *1294:S 0.000155192
9 *1293:I0 *282:96 8.91666e-05
10 *1294:I1 *1294:S 0.000247379
11 *1294:I1 *1404:I 3.06884e-05
12 *1294:I1 *271:19 7.191e-07
13 *1403:I *1294:S 0.00023968
14 *1403:I *1404:I 0.00037413
15 *270:21 *1294:S 0.00016799
16 *270:21 *1404:I 2.89427e-06
17 *270:21 *271:19 6.84043e-05
18 *270:21 *282:81 0.000294421
19 *1293:I1 *1293:I0 0
20 *1327:D *270:21 2.08301e-05
21 *245:41 *1294:I1 3.58376e-05
22 *245:41 *1403:I 0.000106409
23 *245:47 *1294:I1 2.16164e-05
*RES
1 *1328:Q *270:4 4.5 
2 *270:4 *1293:I0 16.2 
3 *270:4 *270:21 6.57 
4 *270:21 *1294:I1 11.16 
5 *270:21 *1403:I 12.33 
*END

*D_NET *271 0.00511379
*CONN
*I *1404:I I *D gf180mcu_fd_sc_mcu7t5v0__dlyb_1
*I *1294:I0 I *D gf180mcu_fd_sc_mcu7t5v0__mux2_2
*I *1297:I1 I *D gf180mcu_fd_sc_mcu7t5v0__mux2_2
*I *1329:Q O *D gf180mcu_fd_sc_mcu7t5v0__dffsnq_1
*CAP
1 *1404:I 0.000442529
2 *1294:I0 0
3 *1297:I1 0.000176732
4 *1329:Q 0.000250864
5 *271:19 0.00111122
6 *271:10 0.00109629
7 *1297:I1 *282:72 4.78445e-05
8 *1297:I1 *282:81 4.45729e-05
9 *1404:I *1294:S 0.000466026
10 *271:10 *1297:S 0.000144947
11 *271:19 *1328:SETN 7.82853e-05
12 *271:19 *282:81 0.000255084
13 rx_data_o[3] *1404:I 7.15661e-05
14 rx_data_o[4] *1404:I 0.000102664
15 *1294:I1 *1404:I 3.06884e-05
16 *1294:I1 *271:19 7.191e-07
17 *1327:D *271:19 0.000348335
18 *1328:D *271:19 0
19 *1403:I *1404:I 0.00037413
20 *270:21 *1404:I 2.89427e-06
21 *270:21 *271:19 6.84043e-05
*RES
1 *1329:Q *271:10 15.75 
2 *271:10 *1297:I1 5.85 
3 *271:10 *271:19 5.85 
4 *271:19 *1294:I0 4.5 
5 *271:19 *1404:I 18.63 
*END

*D_NET *272 0.00581429
*CONN
*I *1405:I I *D gf180mcu_fd_sc_mcu7t5v0__dlyb_1
*I *1301:A1 I *D gf180mcu_fd_sc_mcu7t5v0__nand2_1
*I *1295:B I *D gf180mcu_fd_sc_mcu7t5v0__oai21_1
*I *1330:Q O *D gf180mcu_fd_sc_mcu7t5v0__dffsnq_1
*CAP
1 *1405:I 0.000203788
2 *1301:A1 8.98038e-05
3 *1295:B 0.000240366
4 *1330:Q 0
5 *272:10 0.000932837
6 *272:6 0.000806455
7 *1301:A1 *1301:A2 9.85004e-05
8 *1405:I *1291:S 0.000240538
9 *1405:I *1406:I 1.56781e-05
10 *1405:I *280:34 8.66004e-05
11 *1405:I *284:67 0
12 *272:10 *280:8 7.89459e-05
13 *272:10 *280:34 0.000430726
14 *272:10 *284:67 0
15 *1296:A2 *1295:B 0.000499457
16 *1297:I0 *1295:B 0.000154247
17 *245:6 *1295:B 0.00097681
18 *245:19 *1295:B 0.000469308
19 *245:28 *1295:B 6.44696e-05
20 *245:28 *1301:A1 0.000425761
*RES
1 *1330:Q *272:6 9 
2 *272:6 *272:10 10.53 
3 *272:10 *1295:B 9 
4 *272:10 *1301:A1 5.67 
5 *272:6 *1405:I 10.98 
*END

*D_NET *273 0.00589099
*CONN
*I *1406:I I *D gf180mcu_fd_sc_mcu7t5v0__dlyb_1
*I *1305:A1 I *D gf180mcu_fd_sc_mcu7t5v0__nand2_1
*I *1300:A2 I *D gf180mcu_fd_sc_mcu7t5v0__aoi21_1
*I *1331:Q O *D gf180mcu_fd_sc_mcu7t5v0__dffsnq_1
*CAP
1 *1406:I 0.000627122
2 *1305:A1 0
3 *1300:A2 0.000579095
4 *1331:Q 0.000560667
5 *273:23 0.000627122
6 *273:10 0.00113976
7 *1300:A2 *1305:A2 0.000453197
8 *1300:A2 *1331:SETN 0
9 *1300:A2 *278:91 0
10 *1300:A2 *284:67 0
11 *1300:A2 *295:36 8.05203e-05
12 *1406:I *1291:S 0
13 *1406:I *1331:SETN 2.30981e-05
14 *1406:I *284:61 5.73728e-05
15 *273:10 *1331:SETN 0
16 rx_data_o[5] *1406:I 2.8591e-05
17 rx_data_o[5] *273:10 0
18 *1300:A1 *1300:A2 0.000207343
19 *1303:A1 *273:10 1.47172e-05
20 *1303:A2 *1406:I 1.86887e-06
21 *1304:C *1406:I 5.06271e-05
22 *1306:B *1406:I 4.15389e-05
23 *1331:D *1300:A2 0.000256882
24 *1331:CLK *1300:A2 0
25 *1368:I *1300:A2 5.78854e-06
26 *1405:I *1406:I 1.56781e-05
27 *246:14 *1300:A2 5.22248e-06
28 *246:16 *1300:A2 2.16164e-05
29 *257:10 *1300:A2 9.58064e-05
30 *257:10 *273:10 1.94121e-05
31 *257:14 *1300:A2 0.000240911
32 *257:29 *1300:A2 0.00056252
33 *257:31 *1300:A2 0.000174506
*RES
1 *1331:Q *273:10 12.6 
2 *273:10 *1300:A2 16.56 
3 *273:10 *273:23 4.5 
4 *273:23 *1305:A1 4.5 
5 *273:23 *1406:I 9 
*END

*D_NET *274 0.00239657
*CONN
*I *1407:I I *D gf180mcu_fd_sc_mcu7t5v0__dlyb_1
*I *1158:I I *D gf180mcu_fd_sc_mcu7t5v0__clkinv_1
*I *1308:A1 I *D gf180mcu_fd_sc_mcu7t5v0__nand2_1
*I *1332:Q O *D gf180mcu_fd_sc_mcu7t5v0__dffsnq_1
*CAP
1 *1407:I 5.30004e-05
2 *1158:I 0
3 *1308:A1 4.82746e-05
4 *1332:Q 0.000278293
5 *274:21 0.00015084
6 *274:10 0.000424407
7 *1308:A1 *1291:S 0.000231442
8 *1308:A1 *284:48 4.78178e-05
9 *1407:I *1291:S 0.000208323
10 *1407:I *284:61 0.00022444
11 *274:21 *1291:S 0.000551049
12 *274:21 *284:48 4.45837e-05
13 *274:21 *284:61 9.98816e-05
14 rx_data_o[7] *274:10 0
15 *1309:B *274:10 3.42213e-05
*RES
1 *1332:Q *274:10 15.75 
2 *274:10 *1308:A1 5.13 
3 *274:10 *274:21 1.8 
4 *274:21 *1158:I 4.5 
5 *274:21 *1407:I 5.85 
*END

*D_NET *275 0.00239564
*CONN
*I *1214:A2 I *D gf180mcu_fd_sc_mcu7t5v0__and2_1
*I *1408:I I *D gf180mcu_fd_sc_mcu7t5v0__dlyb_1
*I *1213:ZN O *D gf180mcu_fd_sc_mcu7t5v0__nor2_1
*CAP
1 *1214:A2 0.000246551
2 *1408:I 0.000288646
3 *1213:ZN 0
4 *275:4 0.000535197
5 *1214:A2 *1270:A1 7.55765e-06
6 *1214:A2 *284:31 0.00035495
7 *1214:A2 *291:21 6.32382e-05
8 *1408:I *1270:A1 3.55118e-05
9 *1408:I *284:31 3.06557e-05
10 *1408:I *291:14 0
11 *1408:I *291:21 0.000177559
12 *1214:A1 *1214:A2 0.000557083
13 *1216:A1 *1408:I 2.72966e-05
14 *1216:A2 *1408:I 7.13936e-05
*RES
1 *1213:ZN *275:4 4.5 
2 *275:4 *1408:I 15.84 
3 *275:4 *1214:A2 7.65 
*END

*D_NET *276 0.0233033
*CONN
*I *1235:A1 I *D gf180mcu_fd_sc_mcu7t5v0__nor2_1
*I *1241:A1 I *D gf180mcu_fd_sc_mcu7t5v0__nor2_1
*I *1248:A1 I *D gf180mcu_fd_sc_mcu7t5v0__nor3_1
*I *1244:A1 I *D gf180mcu_fd_sc_mcu7t5v0__nor3_1
*I *1232:A1 I *D gf180mcu_fd_sc_mcu7t5v0__nor3_1
*I *1226:A1 I *D gf180mcu_fd_sc_mcu7t5v0__nor3_1
*I *1228:A1 I *D gf180mcu_fd_sc_mcu7t5v0__nor2_1
*I *1223:A1 I *D gf180mcu_fd_sc_mcu7t5v0__nor3_1
*I *1220:A1 I *D gf180mcu_fd_sc_mcu7t5v0__nor2_1
*I *1218:A2 I *D gf180mcu_fd_sc_mcu7t5v0__nor2_1
*I *1365:Z O *D gf180mcu_fd_sc_mcu7t5v0__dlyb_1
*CAP
1 *1235:A1 0
2 *1241:A1 0.000250277
3 *1248:A1 6.19443e-05
4 *1244:A1 0
5 *1232:A1 3.2369e-05
6 *1226:A1 3.44897e-05
7 *1228:A1 0.000325368
8 *1223:A1 0
9 *1220:A1 0.00064302
10 *1218:A2 0
11 *1365:Z 0.000467375
12 *276:93 0.000966846
13 *276:84 0.00354909
14 *276:53 0.000359858
15 *276:32 0.00118818
16 *276:28 0.000808233
17 *276:26 0.000992443
18 *276:24 0.00109037
19 *276:14 0.00350128
20 *276:10 0.000745554
21 *1241:A1 *281:113 0
22 *1241:A1 *284:67 0.000117315
23 *1248:A1 *1348:RN 0
24 *1248:A1 *284:67 2.49316e-05
25 *276:10 *281:16 5.97457e-06
26 *276:10 *281:94 5.79059e-06
27 *276:24 *281:16 1.47172e-05
28 *276:26 *281:16 9.26419e-06
29 *276:26 *281:18 2.99304e-05
30 *1180:A1 *276:84 0.000425752
31 *1180:A2 *276:84 0.000335822
32 *1180:A3 *276:84 0.000246181
33 *1218:A1 *276:32 0.000411011
34 *1223:A3 *276:32 6.6337e-05
35 *1225:A2 *276:28 0.000437294
36 *1225:A2 *276:32 0.000182206
37 *1226:A2 *1228:A1 0.00105306
38 *1228:A2 *1228:A1 1.61174e-05
39 *1232:A2 *276:24 9.98816e-05
40 *1232:A2 *276:84 0.000233599
41 *1232:A3 *276:24 0
42 *1237:A3 *276:84 0
43 *1242:A1 *276:84 0
44 *1245:A2 *276:84 4.15457e-05
45 *1245:A2 *276:93 0.000218053
46 *1248:A2 *276:93 5.3819e-05
47 *1337:D *1220:A1 1.07374e-05
48 *1338:D *1220:A1 0.00037349
49 *1338:CLK *1220:A1 0
50 *1341:D *1228:A1 0.00036405
51 *1341:CLK *1228:A1 2.36914e-05
52 *1342:CLK *276:10 0
53 *1343:CLK *276:24 0
54 *1343:CLK *276:84 0
55 *1346:D *276:84 0.000109235
56 *1346:CLK *276:84 0.000224766
57 *1347:D *1241:A1 0.000662598
58 *1347:D *1248:A1 0.000111961
59 *1357:I *276:84 0
60 *26:10 *276:84 0
61 *26:10 *276:93 0
62 *157:8 *276:32 0.000492975
63 *159:14 *1228:A1 0
64 *159:38 *276:84 0
65 *163:6 *276:84 0.000112253
66 *172:14 *276:84 7.5133e-05
67 *225:10 *276:93 0
68 *232:10 *276:26 0.000118541
69 *232:10 *276:28 0.000321417
70 *232:10 *276:32 0.000101507
71 *232:25 *276:32 0.000332372
72 *233:12 *276:26 0.000592203
73 *236:21 *276:84 0
74 *236:40 *276:84 0.000194467
75 *237:22 *276:84 3.65543e-05
76 *241:39 *276:84 0
*RES
1 *1365:Z *276:10 12.42 
2 *276:10 *276:14 6.57 
3 *276:14 *276:24 6.84 
4 *276:24 *276:26 6.75 
5 *276:26 *276:28 2.97 
6 *276:28 *276:32 9.99 
7 *276:32 *1218:A2 4.5 
8 *276:32 *1220:A1 9.09 
9 *276:28 *1223:A1 9 
10 *276:26 *276:53 4.5 
11 *276:53 *1228:A1 8.37 
12 *276:53 *1226:A1 4.77 
13 *276:24 *1232:A1 9.27 
14 *276:14 *276:84 22.5 
15 *276:84 *1244:A1 4.5 
16 *276:84 *276:93 9.27 
17 *276:93 *1248:A1 9.81 
18 *276:93 *1241:A1 12.87 
19 *276:10 *1235:A1 9 
*END

*D_NET *277 0.00847687
*CONN
*I *1252:A1 I *D gf180mcu_fd_sc_mcu7t5v0__nor3_1
*I *1254:A1 I *D gf180mcu_fd_sc_mcu7t5v0__nor2_1
*I *1258:A1 I *D gf180mcu_fd_sc_mcu7t5v0__nor3_1
*I *1263:C I *D gf180mcu_fd_sc_mcu7t5v0__aoi211_1
*I *1261:A1 I *D gf180mcu_fd_sc_mcu7t5v0__nor3_1
*I *1366:Z O *D gf180mcu_fd_sc_mcu7t5v0__dlyb_1
*CAP
1 *1252:A1 0
2 *1254:A1 0.000262098
3 *1258:A1 0.00020356
4 *1263:C 0.000354228
5 *1261:A1 0.000108417
6 *1366:Z 0.000199631
7 *277:40 0.000465658
8 *277:20 0.00114276
9 *277:18 0.00167348
10 *277:8 0.001193
11 *1252:A2 *277:8 5.06377e-06
12 *1252:A2 *277:18 0.000174497
13 *1252:A3 *277:18 1.56862e-05
14 *1253:A1 *1254:A1 1.86887e-06
15 *1253:A1 *1258:A1 0
16 *1253:A2 *1254:A1 4.34467e-06
17 *1254:A2 *1254:A1 0.000292429
18 *1259:A1 *1263:C 0.000110619
19 *1259:A2 *1263:C 1.19491e-05
20 *1260:A1 *1263:C 0.000177559
21 *1260:A2 *1263:C 0.000223398
22 *1260:A2 *277:20 0
23 *1261:A2 *1261:A1 0.00023711
24 *1261:A2 *277:20 0.000174506
25 *1261:A3 *1263:C 0.000264239
26 *1262:A1 *1263:C 3.83508e-05
27 *1262:A2 *1263:C 0.000240557
28 *1263:A2 *1263:C 0
29 *1263:B *1263:C 7.84068e-05
30 *1348:D *277:8 0.000103402
31 *1348:CLK *277:18 0
32 *1348:CLK *277:20 0
33 *1349:D *1254:A1 0.000365454
34 *182:12 *277:18 0
35 *182:14 *277:18 0
36 *182:14 *277:20 0
37 *227:6 *277:8 0
38 *229:10 *277:20 0
39 *229:12 *1263:C 9.84776e-05
40 *229:27 *1263:C 0.000209097
41 *230:12 *1263:C 7.55765e-06
42 *243:112 *1254:A1 0
43 *243:112 *1258:A1 3.94742e-05
*RES
1 *1366:Z *277:8 6.12 
2 *277:8 *277:18 11.7 
3 *277:18 *277:20 4.23 
4 *277:20 *1261:A1 9.99 
5 *277:20 *1263:C 14.13 
6 *277:18 *277:40 4.5 
7 *277:40 *1258:A1 5.85 
8 *277:40 *1254:A1 7.2 
9 *277:8 *1252:A1 4.5 
*END

*D_NET *278 0.0269544
*CONN
*I *1294:S I *D gf180mcu_fd_sc_mcu7t5v0__mux2_2
*I *1320:A2 I *D gf180mcu_fd_sc_mcu7t5v0__oai21_1
*I *1319:A2 I *D gf180mcu_fd_sc_mcu7t5v0__nand3_1
*I *1292:S I *D gf180mcu_fd_sc_mcu7t5v0__mux2_2
*I *1293:S I *D gf180mcu_fd_sc_mcu7t5v0__mux2_2
*I *1313:B I *D gf180mcu_fd_sc_mcu7t5v0__aoi21_1
*I *1291:S I *D gf180mcu_fd_sc_mcu7t5v0__mux2_2
*I *1308:A2 I *D gf180mcu_fd_sc_mcu7t5v0__nand2_1
*I *1309:A1 I *D gf180mcu_fd_sc_mcu7t5v0__oai21_1
*I *1311:I1 I *D gf180mcu_fd_sc_mcu7t5v0__mux2_2
*I *1367:Z O *D gf180mcu_fd_sc_mcu7t5v0__dlyb_1
*CAP
1 *1294:S 0.000466162
2 *1320:A2 0.000260809
3 *1319:A2 0
4 *1292:S 0
5 *1293:S 0.00076923
6 *1313:B 0.000178702
7 *1291:S 0.00129472
8 *1308:A2 0
9 *1309:A1 0
10 *1311:I1 0.00108586
11 *1367:Z 8.13688e-05
12 *278:91 0.00131697
13 *278:70 0.00195594
14 *278:48 0.00145226
15 *278:35 0.000501884
16 *278:31 0.00128384
17 *278:27 0.000237574
18 *278:12 0.00127135
19 *278:8 0.000466253
20 *1291:S *1307:A1 0.000361611
21 *1291:S *280:34 0.00136705
22 *1291:S *284:48 8.12856e-06
23 *1291:S *284:61 0.000575922
24 *1293:S *282:81 0
25 *1293:S *282:102 4.70057e-05
26 *1294:S *282:81 0.000107953
27 *1311:I1 *1267:A2 0.000526079
28 *1311:I1 *1370:I 0
29 *1311:I1 *282:12 0
30 *1320:A2 *1319:A1 4.80547e-05
31 *1320:A2 *284:31 0
32 *278:8 *1370:I 0.000168533
33 *278:8 *290:8 4.22826e-05
34 *278:12 *1267:A2 8.54106e-06
35 *278:12 *1370:I 6.23828e-05
36 *278:12 *290:8 2.1117e-05
37 *1165:A1 *1311:I1 0.000101812
38 *1273:A1 *278:91 0.000229163
39 *1292:I0 *278:91 1.39839e-05
40 *1292:I1 *1293:S 9.0531e-06
41 *1292:I1 *278:91 0.000262024
42 *1293:I0 *1293:S 1.61174e-05
43 *1293:I0 *1294:S 0.000155192
44 *1293:I1 *1293:S 0.00139553
45 *1294:I1 *1294:S 0.000247379
46 *1296:A1 *1313:B 0.000113639
47 *1296:A2 *1313:B 0
48 *1300:A2 *278:91 0
49 *1302:A2 *278:91 0
50 *1302:B *278:91 0.00015997
51 *1304:B *1291:S 9.84908e-05
52 *1306:A2 *1291:S 4.31673e-05
53 *1307:A3 *278:70 0.000436469
54 *1308:A1 *1291:S 0.000231442
55 *1309:A2 *1291:S 0
56 *1309:A2 *278:70 0
57 *1309:B *278:48 0.000255088
58 *1310:A2 *1311:I1 0.000309993
59 *1319:A3 *1311:I1 0.000151427
60 *1319:A3 *278:27 0.000137171
61 *1319:A3 *278:31 0.000106536
62 *1320:B *1311:I1 0.00035741
63 *1320:B *1320:A2 1.58782e-05
64 *1320:B *278:27 0.000415035
65 *1320:B *278:31 9.67043e-05
66 *1330:D *278:91 0.00105472
67 *1332:D *278:31 1.86887e-06
68 *1332:D *278:70 0.000207255
69 *1332:CLK *278:31 0.000153569
70 *1332:CLK *278:70 0.000197563
71 *1336:D *1320:A2 0.000356005
72 *1367:I *1311:I1 0
73 *1367:I *278:12 9.08599e-05
74 *1368:I *278:70 0.000125378
75 *1401:I *1291:S 1.0415e-05
76 *1403:I *1294:S 0.00023968
77 *1404:I *1294:S 0.000466026
78 *1405:I *1291:S 0.000240538
79 *1406:I *1291:S 0
80 *1407:I *1291:S 0.000208323
81 *84:26 *1311:I1 0.000148995
82 *195:8 *1311:I1 0.000174506
83 *205:10 *1311:I1 0
84 *245:6 *278:91 6.35387e-05
85 *245:19 *278:91 6.37124e-05
86 *245:28 *278:91 0.000201066
87 *246:14 *278:70 0
88 *246:16 *1313:B 0
89 *246:16 *278:70 0
90 *253:12 *1311:I1 0.000249124
91 *257:44 *278:91 0.000499457
92 *267:8 *1291:S 0
93 *269:19 *1293:S 0.00015651
94 *270:21 *1294:S 0.00016799
95 *274:21 *1291:S 0.000551049
*RES
1 *1367:Z *278:8 10.35 
2 *278:8 *278:12 5.67 
3 *278:12 *1311:I1 23.58 
4 *278:12 *278:27 1.17 
5 *278:27 *278:31 1.98 
6 *278:31 *278:35 6.21 
7 *278:35 *1309:A1 9 
8 *278:35 *278:48 6.12 
9 *278:48 *1308:A2 4.5 
10 *278:48 *1291:S 18.09 
11 *278:31 *278:70 11.7 
12 *278:70 *1313:B 10.17 
13 *278:70 *278:91 14.85 
14 *278:91 *1293:S 17.64 
15 *278:91 *1292:S 4.5 
16 *278:27 *1319:A2 4.5 
17 *278:8 *1320:A2 11.07 
18 *1293:S *1294:S 22.86 
*END

*D_NET *279 0.00626192
*CONN
*I *1174:A1 I *D gf180mcu_fd_sc_mcu7t5v0__xor2_1
*I *1151:I I *D gf180mcu_fd_sc_mcu7t5v0__clkinv_1
*I *1198:B1 I *D gf180mcu_fd_sc_mcu7t5v0__aoi22_1
*I *1390:Z O *D gf180mcu_fd_sc_mcu7t5v0__dlyb_1
*CAP
1 *1174:A1 0
2 *1151:I 0.00015831
3 *1198:B1 0.000147729
4 *1390:Z 0.000291406
5 *279:18 0.00113345
6 *279:12 0.00111881
7 *1151:I *1197:A1 8.54106e-06
8 *279:12 *1197:A1 0.000166798
9 *279:12 *288:10 0.000624906
10 *279:18 *1175:A1 0.000183652
11 *279:18 *1197:A1 0.000139358
12 *279:18 *286:10 0.00130043
13 *1182:A4 *279:18 1.77247e-05
14 *1189:A2 *279:18 5.78854e-06
15 *1198:A1 *279:18 0
16 *1198:B2 *1151:I 0.000528649
17 *1198:B2 *1198:B1 0.000215887
18 *1393:I *279:12 4.82191e-05
19 *97:8 *1198:B1 0
20 *229:27 *279:12 0.000172267
21 *255:14 *279:12 0
*RES
1 *1390:Z *279:12 16.38 
2 *279:12 *279:18 11.52 
3 *279:18 *1198:B1 10.35 
4 *279:18 *1151:I 10.71 
5 *279:12 *1174:A1 4.5 
*END

*D_NET *280 0.00728518
*CONN
*I *1302:A1 I *D gf180mcu_fd_sc_mcu7t5v0__oai21_1
*I *1306:A1 I *D gf180mcu_fd_sc_mcu7t5v0__oai21_1
*I *1305:A2 I *D gf180mcu_fd_sc_mcu7t5v0__nand2_1
*I *1301:A2 I *D gf180mcu_fd_sc_mcu7t5v0__nand2_1
*I *1297:S I *D gf180mcu_fd_sc_mcu7t5v0__mux2_2
*I *1368:Z O *D gf180mcu_fd_sc_mcu7t5v0__dlyb_1
*CAP
1 *1302:A1 9.49269e-05
2 *1306:A1 0
3 *1305:A2 0.000109249
4 *1301:A2 2.65715e-05
5 *1297:S 0.000501337
6 *1368:Z 0
7 *280:34 0.00102242
8 *280:8 0.00074192
9 *280:6 0.00112718
10 *280:4 9.49269e-05
11 *1297:S *282:72 0.000444513
12 *1305:A2 *1331:SETN 0
13 *1305:A2 *284:67 0
14 *1291:S *280:34 0.00136705
15 *1297:I0 *1297:S 0
16 *1300:A2 *1305:A2 0.000453197
17 *1301:A1 *1301:A2 9.85004e-05
18 *1302:A2 *1302:A1 2.56915e-05
19 *1330:D *1302:A1 0.000436478
20 *1331:D *280:34 0
21 *1405:I *280:34 8.66004e-05
22 *271:10 *1297:S 0.000144947
23 *272:10 *280:8 7.89459e-05
24 *272:10 *280:34 0.000430726
*RES
1 *1368:Z *280:4 4.5 
2 *280:4 *280:6 4.5 
3 *280:6 *280:8 1.35 
4 *280:8 *1297:S 13.68 
5 *280:8 *1301:A2 9.27 
6 *280:6 *280:34 14.04 
7 *280:34 *1305:A2 14.67 
8 *280:34 *1306:A1 4.5 
9 *280:4 *1302:A1 5.67 
*END

*D_NET *281 0.0288346
*CONN
*I *1343:RN I *D gf180mcu_fd_sc_mcu7t5v0__dffrnq_1
*I *1347:RN I *D gf180mcu_fd_sc_mcu7t5v0__dffrnq_1
*I *1348:RN I *D gf180mcu_fd_sc_mcu7t5v0__dffrnq_1
*I *1346:RN I *D gf180mcu_fd_sc_mcu7t5v0__dffrnq_1
*I *1342:RN I *D gf180mcu_fd_sc_mcu7t5v0__dffrnq_1
*I *1340:RN I *D gf180mcu_fd_sc_mcu7t5v0__dffrnq_1
*I *1337:RN I *D gf180mcu_fd_sc_mcu7t5v0__dffrnq_1
*I *1338:RN I *D gf180mcu_fd_sc_mcu7t5v0__dffrnq_1
*I *1339:RN I *D gf180mcu_fd_sc_mcu7t5v0__dffrnq_1
*I *1341:RN I *D gf180mcu_fd_sc_mcu7t5v0__dffrnq_1
*I *1369:Z O *D gf180mcu_fd_sc_mcu7t5v0__dlyb_1
*CAP
1 *1343:RN 0
2 *1347:RN 0
3 *1348:RN 0.000596342
4 *1346:RN 0
5 *1342:RN 0
6 *1340:RN 0
7 *1337:RN 4.29213e-05
8 *1338:RN 0.000637467
9 *1339:RN 6.84125e-05
10 *1341:RN 0.000543324
11 *1369:Z 0.000239445
12 *281:113 0.0022293
13 *281:102 0.00451003
14 *281:94 0.00307892
15 *281:52 0.00132083
16 *281:39 0.00109181
17 *281:33 0.000634567
18 *281:18 0.00107215
19 *281:16 0.00134767
20 *281:10 0.00151176
21 *1148:I *281:102 0.000126868
22 *1185:A1 *281:102 4.47007e-05
23 *1185:A2 *281:102 0
24 *1195:A1 *281:102 1.49663e-05
25 *1221:A2 *1338:RN 0.000109394
26 *1238:A1 *281:102 0.000244336
27 *1241:A1 *281:113 0
28 *1248:A1 *1348:RN 0
29 *1248:A3 *1348:RN 0
30 *1249:A2 *1348:RN 0
31 *1334:D *281:102 0.000302236
32 *1334:CLK *281:102 0.000116594
33 *1340:D *281:52 0.000132939
34 *1341:CLK *281:52 0.000560868
35 *1342:D *281:16 0.000615188
36 *1344:D *281:102 1.73182e-05
37 *1345:CLK *281:113 0.00143807
38 *1347:D *1348:RN 0
39 *1347:D *281:113 0
40 *151:6 *281:102 0.000100112
41 *224:12 *1337:RN 4.6613e-06
42 *224:12 *1338:RN 0.000502732
43 *224:12 *281:52 0.000354148
44 *224:16 *1338:RN 5.62435e-06
45 *224:37 *1338:RN 0.000679608
46 *224:50 *1338:RN 0.00026231
47 *226:12 *1348:RN 0.000209763
48 *231:8 *1338:RN 0.00101768
49 *232:10 *1339:RN 3.14347e-05
50 *232:10 *281:52 0.000182928
51 *233:12 *1341:RN 6.58085e-05
52 *233:12 *281:18 0.000137835
53 *233:12 *281:52 0.000112145
54 *236:12 *281:102 0
55 *242:53 *281:39 0.00172683
56 *242:59 *1339:RN 0.000297236
57 *242:59 *281:52 6.23973e-05
58 *243:26 *281:102 1.17725e-05
59 *245:51 *281:113 0
60 *245:55 *281:113 3.55431e-05
61 *249:20 *1341:RN 0.000156209
62 *249:20 *281:33 0.000163737
63 *254:12 *281:102 0
64 *254:12 *281:113 0
65 *276:10 *281:16 5.97457e-06
66 *276:10 *281:94 5.79059e-06
67 *276:24 *281:16 1.47172e-05
68 *276:26 *281:16 9.26419e-06
69 *276:26 *281:18 2.99304e-05
*RES
1 *1369:Z *281:10 15.39 
2 *281:10 *281:16 13.68 
3 *281:16 *281:18 2.25 
4 *281:18 *1341:RN 12.78 
5 *281:18 *281:33 6.39 
6 *281:33 *281:39 13.59 
7 *281:39 *1339:RN 5.31 
8 *281:39 *281:52 11.16 
9 *281:52 *1338:RN 16.38 
10 *281:52 *1337:RN 9.27 
11 *281:33 *1340:RN 4.5 
12 *281:16 *1342:RN 9 
13 *281:10 *281:94 1.35 
14 *281:94 *281:102 20.52 
15 *281:102 *1346:RN 4.5 
16 *281:102 *281:113 17.46 
17 *281:113 *1348:RN 13.32 
18 *281:113 *1347:RN 9 
19 *281:94 *1343:RN 4.5 
*END

*D_NET *282 0.0229377
*CONN
*I *1327:SETN I *D gf180mcu_fd_sc_mcu7t5v0__dffsnq_1
*I *1325:SETN I *D gf180mcu_fd_sc_mcu7t5v0__dffsnq_1
*I *1326:SETN I *D gf180mcu_fd_sc_mcu7t5v0__dffsnq_1
*I *1330:SETN I *D gf180mcu_fd_sc_mcu7t5v0__dffsnq_1
*I *1328:SETN I *D gf180mcu_fd_sc_mcu7t5v0__dffsnq_1
*I *1329:SETN I *D gf180mcu_fd_sc_mcu7t5v0__dffsnq_1
*I *1335:RN I *D gf180mcu_fd_sc_mcu7t5v0__dffrnq_1
*I *1334:RN I *D gf180mcu_fd_sc_mcu7t5v0__dffrnq_1
*I *1345:RN I *D gf180mcu_fd_sc_mcu7t5v0__dffrnq_1
*I *1333:RN I *D gf180mcu_fd_sc_mcu7t5v0__dffrnq_1
*I *1370:Z O *D gf180mcu_fd_sc_mcu7t5v0__dlyb_1
*CAP
1 *1327:SETN 5.37033e-05
2 *1325:SETN 0.000479857
3 *1326:SETN 0
4 *1330:SETN 0.000882349
5 *1328:SETN 0.000254317
6 *1329:SETN 0
7 *1335:RN 0
8 *1334:RN 0
9 *1345:RN 0.000786536
10 *1333:RN 0
11 *1370:Z 0.000268402
12 *282:104 0.000882349
13 *282:102 0.00112408
14 *282:96 0.000924095
15 *282:81 0.000891366
16 *282:72 0.00136519
17 *282:59 0.00168717
18 *282:31 0.00115992
19 *282:23 0.00135691
20 *282:12 0.000519067
21 *282:12 *292:21 3.56634e-05
22 *282:23 *292:21 0.000372026
23 *282:31 *292:25 0.000113004
24 *1275:A1 *282:59 0
25 *1275:A2 *282:23 0
26 *1291:I1 *1325:SETN 0
27 *1292:I1 *1325:SETN 0.000572789
28 *1292:I1 *282:102 0.00124976
29 *1293:I0 *282:96 8.91666e-05
30 *1293:S *282:81 0
31 *1293:S *282:102 4.70057e-05
32 *1294:S *282:81 0.000107953
33 *1297:I0 *282:72 0
34 *1297:I1 *282:72 4.78445e-05
35 *1297:I1 *282:81 4.45729e-05
36 *1297:S *282:72 0.000444513
37 *1311:I1 *282:12 0
38 *1316:A4 *282:23 0.000231401
39 *1316:A4 *282:59 9.3226e-06
40 *1317:A1 *282:31 0.000390584
41 *1317:A1 *282:59 0
42 *1317:B *282:59 0
43 *1325:D *1325:SETN 0.000520343
44 *1325:CLK *1325:SETN 0
45 *1325:CLK *282:102 0
46 *1327:D *282:81 0.000774446
47 *1328:D *1328:SETN 5.9617e-05
48 *1334:D *1345:RN 0
49 *1334:D *282:31 0
50 *1335:CLK *1345:RN 0.0002942
51 *1368:I *1330:SETN 0
52 *1400:I *1325:SETN 0
53 *1401:I *1325:SETN 0.000382875
54 *1402:I *1330:SETN 0
55 *64:12 *282:31 1.47172e-05
56 *65:12 *282:59 0.000316121
57 *100:8 *282:31 0.000210808
58 *100:8 *282:59 0
59 *193:10 *282:59 0
60 *217:20 *282:23 0.000774446
61 *219:8 *282:59 8.04753e-05
62 *245:28 *282:102 2.89427e-06
63 *245:39 *1327:SETN 8.68281e-06
64 *245:39 *282:102 6.84043e-05
65 *245:41 *1328:SETN 0.000409038
66 *245:41 *282:96 0.00145813
67 *245:41 *282:102 0
68 *245:47 *1328:SETN 0.000101624
69 *266:10 *1325:SETN 4.90143e-05
70 *267:8 *1330:SETN 0
71 *267:23 *1325:SETN 0.000393153
72 *270:21 *282:81 0.000294421
73 *271:19 *1328:SETN 7.82853e-05
74 *271:19 *282:81 0.000255084
*RES
1 *1370:Z *282:12 15.48 
2 *282:12 *1333:RN 4.5 
3 *282:12 *282:23 3.51 
4 *282:23 *282:31 8.37 
5 *282:31 *1345:RN 14.94 
6 *282:31 *1334:RN 9 
7 *282:23 *282:59 14.67 
8 *282:59 *1335:RN 4.5 
9 *282:59 *282:72 6.48 
10 *282:72 *1329:SETN 4.5 
11 *282:72 *282:81 9.45 
12 *282:81 *1328:SETN 11.52 
13 *282:81 *282:96 8.19 
14 *282:96 *282:102 10.44 
15 *282:102 *282:104 4.5 
16 *282:104 *1330:SETN 9.9 
17 *282:104 *1326:SETN 4.5 
18 *282:102 *1325:SETN 15.12 
19 *282:96 *1327:SETN 4.77 
*END

*D_NET *283 0.0223607
*CONN
*I *1336:RN I *D gf180mcu_fd_sc_mcu7t5v0__dffrnq_1
*I *1356:SETN I *D gf180mcu_fd_sc_mcu7t5v0__dffsnq_1
*I *1353:RN I *D gf180mcu_fd_sc_mcu7t5v0__dffrnq_1
*I *1355:SETN I *D gf180mcu_fd_sc_mcu7t5v0__dffsnq_1
*I *1344:RN I *D gf180mcu_fd_sc_mcu7t5v0__dffrnq_1
*I *1322:RN I *D gf180mcu_fd_sc_mcu7t5v0__dffrnq_1
*I *1321:RN I *D gf180mcu_fd_sc_mcu7t5v0__dffrnq_1
*I *1324:RN I *D gf180mcu_fd_sc_mcu7t5v0__dffrnq_1
*I *1323:RN I *D gf180mcu_fd_sc_mcu7t5v0__dffrnq_1
*I *1354:SETN I *D gf180mcu_fd_sc_mcu7t5v0__dffsnq_1
*I *1371:Z O *D gf180mcu_fd_sc_mcu7t5v0__dlyb_1
*CAP
1 *1336:RN 0.000329089
2 *1356:SETN 5.74829e-05
3 *1353:RN 0
4 *1355:SETN 3.44897e-05
5 *1344:RN 0.000450829
6 *1322:RN 0.000385757
7 *1321:RN 0
8 *1324:RN 0
9 *1323:RN 0.000190143
10 *1354:SETN 0.000969554
11 *1371:Z 3.91499e-05
12 *283:98 0.000575682
13 *283:64 0.00121261
14 *283:56 0.000997597
15 *283:54 0.00176343
16 *283:48 0.00267181
17 *283:41 0.00179822
18 *283:34 0.000815778
19 *283:10 0.00182192
20 *283:8 0.00102527
21 *1336:RN *284:31 0
22 *283:34 *1371:I 0.000229011
23 *283:41 *1371:I 0.000250527
24 *283:41 *284:6 4.34121e-06
25 *283:41 *284:10 0
26 *283:41 *284:31 0
27 *283:48 *284:31 0
28 *283:48 *291:8 4.55966e-05
29 *283:54 *294:10 9.96882e-06
30 *283:54 *295:12 0
31 *283:98 *284:31 0
32 err_parity_o *283:48 6.57682e-05
33 *1155:I *1354:SETN 0.000775545
34 *1168:A1 *283:56 0.000568062
35 *1168:A1 *283:64 2.14748e-05
36 *1168:A2 *283:54 0
37 *1264:A1 *1354:SETN 9.29411e-06
38 *1266:A1 *283:54 0.000651297
39 *1269:A1 *283:54 0
40 *1272:A1 *283:56 0
41 *1278:A1 *283:54 0.000324046
42 *1278:A2 *283:54 0.000372597
43 *1284:A2 *1322:RN 0
44 *1385:I *283:41 2.1573e-06
45 *1388:I *283:48 6.89752e-05
46 *1397:I *283:48 0.000256384
47 *42:14 *1323:RN 0
48 *42:61 *1322:RN 0
49 *42:61 *283:64 0
50 *43:8 *283:10 0.000195026
51 *43:8 *283:34 6.67474e-05
52 *43:14 *283:10 2.49306e-05
53 *85:8 *283:54 0.000172572
54 *99:8 *1354:SETN 3.34588e-05
55 *110:34 *283:56 0
56 *111:12 *283:54 2.98938e-05
57 *111:12 *283:56 0.000248121
58 *152:12 *283:54 0
59 *237:10 *1344:RN 0
60 *240:10 *283:54 8.93953e-05
61 *240:32 *283:54 0.000103991
62 *240:45 *283:54 0.000238391
63 *240:58 *283:54 0.00021632
64 *253:12 *1336:RN 0.000155486
65 *256:10 *283:10 0.000361449
66 *256:10 *283:34 0.000169462
67 *256:12 *283:10 0.00029203
68 *256:16 *1354:SETN 0.000749824
69 *256:16 *283:10 0.000419755
*RES
1 *1371:Z *283:8 9.27 
2 *283:8 *283:10 6.75 
3 *283:10 *1354:SETN 17.91 
4 *283:10 *1323:RN 9.99 
5 *283:8 *283:34 7.56 
6 *283:34 *1324:RN 4.5 
7 *283:34 *283:41 3.33 
8 *283:41 *1321:RN 4.5 
9 *283:41 *283:48 9.63 
10 *283:48 *283:54 21.33 
11 *283:54 *283:56 5.49 
12 *283:56 *283:64 2.52 
13 *283:64 *1322:RN 6.93 
14 *283:64 *1344:RN 17.01 
15 *283:56 *1355:SETN 4.77 
16 *283:54 *1353:RN 4.5 
17 *283:48 *283:98 1.26 
18 *283:98 *1356:SETN 4.95 
19 *283:98 *1336:RN 6.75 
*END

*D_NET *284 0.0405042
*CONN
*I *1371:I I *D gf180mcu_fd_sc_mcu7t5v0__dlyb_1
*I *1331:SETN I *D gf180mcu_fd_sc_mcu7t5v0__dffsnq_1
*I *1349:RN I *D gf180mcu_fd_sc_mcu7t5v0__dffrnq_1
*I *1350:RN I *D gf180mcu_fd_sc_mcu7t5v0__dffrnq_1
*I *1351:RN I *D gf180mcu_fd_sc_mcu7t5v0__dffrnq_1
*I *1352:RN I *D gf180mcu_fd_sc_mcu7t5v0__dffrnq_1
*I *1332:SETN I *D gf180mcu_fd_sc_mcu7t5v0__dffsnq_1
*I *1370:I I *D gf180mcu_fd_sc_mcu7t5v0__dlyb_1
*I *1369:I I *D gf180mcu_fd_sc_mcu7t5v0__dlyb_1
*I *1372:Z O *D gf180mcu_fd_sc_mcu7t5v0__dlyb_1
*CAP
1 *1371:I 0.00039591
2 *1331:SETN 0.000261292
3 *1349:RN 0.000742189
4 *1350:RN 0
5 *1351:RN 0.00038809
6 *1352:RN 0.000451594
7 *1332:SETN 0
8 *1370:I 0.000799974
9 *1369:I 0.00151063
10 *1372:Z 1.72261e-05
11 *284:75 0.00123531
12 *284:71 0.000461027
13 *284:67 0.00375446
14 *284:61 0.00382174
15 *284:48 0.00125941
16 *284:31 0.00334918
17 *284:10 0.00372917
18 *284:6 0.000728297
19 *1370:I *290:8 0
20 *284:31 *1270:A1 0.000233831
21 *284:48 *290:8 0
22 *1167:A1 *1369:I 0.000101415
23 *1214:A2 *284:31 0.00035495
24 *1216:A1 *284:31 0.000397171
25 *1241:A1 *284:67 0.000117315
26 *1248:A1 *284:67 2.49316e-05
27 *1248:A3 *284:67 0
28 *1249:A2 *284:67 0
29 *1255:A2 *284:75 0
30 *1270:A2 *284:31 0
31 *1277:A1 *1370:I 1.56779e-05
32 *1281:A1 *1369:I 0.000224708
33 *1283:A2 *1369:I 0
34 *1284:A2 *1369:I 3.91833e-05
35 *1284:B *1369:I 0.00028581
36 *1285:I0 *1369:I 3.88059e-05
37 *1291:S *284:48 8.12856e-06
38 *1291:S *284:61 0.000575922
39 *1296:A3 *284:67 0
40 *1297:I0 *284:67 0.000185098
41 *1300:A2 *1331:SETN 0
42 *1300:A2 *284:67 0
43 *1303:A2 *284:61 0
44 *1304:C *284:61 0.000186904
45 *1305:A2 *1331:SETN 0
46 *1305:A2 *284:67 0
47 *1306:B *284:61 0.000169524
48 *1308:A1 *284:48 4.78178e-05
49 *1311:I1 *1370:I 0
50 *1320:A2 *284:31 0
51 *1321:D *1369:I 0.000130165
52 *1321:D *284:31 0
53 *1329:D *284:67 0
54 *1331:D *284:67 0
55 *1331:CLK *284:67 0.00172657
56 *1336:RN *284:31 0
57 *1348:CLK *1349:RN 0
58 *1355:D *1369:I 4.15505e-05
59 *1367:I *1370:I 0.000706201
60 *1372:I *1371:I 0.000974797
61 *1385:I *1371:I 0
62 *1385:I *284:10 9.85004e-05
63 *1396:I *1369:I 0.000594985
64 *1396:I *1371:I 3.11112e-05
65 *1397:I *284:31 0.000379682
66 *1399:I *284:31 0.000302466
67 *1405:I *284:67 0
68 *1406:I *1331:SETN 2.30981e-05
69 *1406:I *284:61 5.73728e-05
70 *1407:I *284:61 0.00022444
71 *1408:I *284:31 3.06557e-05
72 *41:8 *1369:I 9.47536e-06
73 *41:55 *1369:I 0.000101425
74 *110:10 *1369:I 0.000271809
75 *178:8 *284:67 0
76 *182:12 *1349:RN 8.03445e-05
77 *182:12 *284:75 0
78 *182:14 *284:75 0
79 *197:16 *1369:I 9.53585e-05
80 *205:10 *1370:I 0.000729309
81 *225:16 *284:67 0.000142246
82 *225:18 *284:67 9.22066e-05
83 *225:24 *1352:RN 5.06031e-06
84 *226:22 *284:67 0.00011919
85 *227:6 *1349:RN 0
86 *227:21 *284:67 0.000157964
87 *227:21 *284:71 7.14873e-05
88 *227:21 *284:75 0.000188032
89 *238:12 *284:67 0.00016672
90 *238:20 *284:67 0.00250002
91 *238:35 *284:67 0.000676974
92 *243:71 *284:67 0.00126229
93 *243:71 *284:71 3.3721e-05
94 *243:71 *284:75 0.000816457
95 *243:75 *284:75 3.61578e-05
96 *243:112 *1351:RN 0.000362737
97 *243:112 *1352:RN 7.43642e-05
98 *246:8 *284:61 0.000377955
99 *253:12 *284:31 3.93918e-05
100 *272:10 *284:67 0
101 *273:10 *1331:SETN 0
102 *274:21 *284:48 4.45837e-05
103 *274:21 *284:61 9.98816e-05
104 *278:8 *1370:I 0.000168533
105 *278:12 *1370:I 6.23828e-05
106 *283:34 *1371:I 0.000229011
107 *283:41 *1371:I 0.000250527
108 *283:41 *284:6 4.34121e-06
109 *283:41 *284:10 0
110 *283:41 *284:31 0
111 *283:48 *284:31 0
112 *283:98 *284:31 0
*RES
1 *1372:Z *284:6 4.68 
2 *284:6 *284:10 2.07 
3 *284:10 *1369:I 27.9 
4 *284:10 *284:31 19.71 
5 *284:31 *1370:I 16.74 
6 *284:31 *284:48 8.82 
7 *284:48 *1332:SETN 4.5 
8 *284:48 *284:61 11.61 
9 *284:61 *284:67 31.95 
10 *284:67 *284:71 0.9 
11 *284:71 *284:75 9.45 
12 *284:75 *1352:RN 7.47 
13 *284:75 *1351:RN 7.74 
14 *284:71 *1350:RN 9 
15 *284:67 *1349:RN 13.59 
16 *284:61 *1331:SETN 10.8 
17 *284:6 *1371:I 18.36 
*END

*D_NET *285 0.00759272
*CONN
*I *1179:A1 I *D gf180mcu_fd_sc_mcu7t5v0__xor2_1
*I *1189:A1 I *D gf180mcu_fd_sc_mcu7t5v0__xor2_1
*I *1391:Z O *D gf180mcu_fd_sc_mcu7t5v0__dlyb_1
*CAP
1 *1179:A1 0.000944755
2 *1189:A1 3.80103e-05
3 *1391:Z 0.00013712
4 *285:10 0.00111989
5 *1179:A1 *289:10 1.07281e-05
6 *1189:A1 *1193:A1 0.000158798
7 *285:10 *289:10 0.000126969
8 *1171:A2 *1179:A1 0
9 *1178:A2 *1179:A1 0
10 *1179:A2 *1179:A1 0.00122773
11 *1183:A2 *1179:A1 0.000209248
12 *1189:A2 *1189:A1 2.31089e-05
13 *1198:A1 *1179:A1 0
14 *1198:A1 *285:10 0
15 *1200:A1 *1179:A1 0.000279469
16 *1200:A1 *1189:A1 5.78854e-06
17 *1200:A1 *285:10 0.000312562
18 *1200:A3 *285:10 2.31089e-05
19 *1201:A1 *1179:A1 0.000744726
20 *1201:A3 *1179:A1 0.000615162
21 *1201:A4 *1179:A1 2.35549e-05
22 *1204:B1 *1179:A1 1.19491e-05
23 *91:10 *1179:A1 0
24 *226:34 *1179:A1 0.00145965
25 *241:21 *1179:A1 7.20436e-05
26 *248:14 *285:10 4.83522e-05
*RES
1 *1391:Z *285:10 10.8 
2 *285:10 *1189:A1 9.45 
3 *285:10 *1179:A1 21.42 
*END

*D_NET *286 0.00328929
*CONN
*I *1173:A1 I *D gf180mcu_fd_sc_mcu7t5v0__xor2_1
*I *1153:I I *D gf180mcu_fd_sc_mcu7t5v0__clkinv_1
*I *1392:Z O *D gf180mcu_fd_sc_mcu7t5v0__dlyb_1
*CAP
1 *1173:A1 0.000188869
2 *1153:I 0
3 *1392:Z 0.000637436
4 *286:10 0.000826305
5 *286:10 *1197:A1 0
6 *286:10 *288:10 0
7 *1198:A1 *286:10 0.000110921
8 *230:32 *1173:A1 0.000225332
9 *279:18 *286:10 0.00130043
*RES
1 *1392:Z *286:10 18.63 
2 *286:10 *1153:I 4.5 
3 *286:10 *1173:A1 6.03 
*END

*D_NET *287 0.00178539
*CONN
*I *1191:A1 I *D gf180mcu_fd_sc_mcu7t5v0__xor2_1
*I *1169:A1 I *D gf180mcu_fd_sc_mcu7t5v0__xor2_1
*I *1393:Z O *D gf180mcu_fd_sc_mcu7t5v0__dlyb_1
*CAP
1 *1191:A1 4.73621e-05
2 *1169:A1 0
3 *1393:Z 0.000371835
4 *287:12 0.000419197
5 *287:12 *1197:A1 0
6 *1191:A2 *1191:A1 0.000218664
7 *1191:A2 *287:12 1.18477e-05
8 *1197:A2 *1191:A1 1.23523e-05
9 *225:24 *287:12 0
10 *230:32 *287:12 0
11 *255:14 *1191:A1 0.000314837
12 *255:14 *287:12 0.000389293
*RES
1 *1393:Z *287:12 11.97 
2 *287:12 *1169:A1 9 
3 *287:12 *1191:A1 10.71 
*END

*D_NET *288 0.00419613
*CONN
*I *1197:A1 I *D gf180mcu_fd_sc_mcu7t5v0__xor2_1
*I *1175:A1 I *D gf180mcu_fd_sc_mcu7t5v0__xor2_1
*I *1394:Z O *D gf180mcu_fd_sc_mcu7t5v0__dlyb_1
*CAP
1 *1197:A1 0.000901804
2 *1175:A1 6.44104e-05
3 *1394:Z 0.000183404
4 *288:10 0.00114962
5 *1151:I *1197:A1 8.54106e-06
6 *1189:A2 *1175:A1 0.000183652
7 *1191:A2 *1197:A1 1.23523e-05
8 *1197:A2 *1197:A1 0.000393885
9 *1198:B2 *1197:A1 6.95539e-05
10 *1206:A1 *1197:A1 9.85004e-05
11 *1393:I *288:10 3.31858e-06
12 *1394:I *288:10 0
13 *229:27 *288:10 1.23715e-05
14 *255:14 *1197:A1 0
15 *279:12 *1197:A1 0.000166798
16 *279:12 *288:10 0.000624906
17 *279:18 *1175:A1 0.000183652
18 *279:18 *1197:A1 0.000139358
19 *286:10 *1197:A1 0
20 *286:10 *288:10 0
21 *287:12 *1197:A1 0
*RES
1 *1394:Z *288:10 10.98 
2 *288:10 *1175:A1 10.17 
3 *288:10 *1197:A1 16.56 
*END

*D_NET *289 0.00217617
*CONN
*I *1193:A1 I *D gf180mcu_fd_sc_mcu7t5v0__xor2_1
*I *1183:A1 I *D gf180mcu_fd_sc_mcu7t5v0__xnor2_1
*I *1395:Z O *D gf180mcu_fd_sc_mcu7t5v0__dlyb_1
*CAP
1 *1193:A1 0.000150013
2 *1183:A1 2.1197e-05
3 *1395:Z 0.000205595
4 *289:10 0.000376805
5 *1177:A3 *1183:A1 9.84908e-05
6 *1177:A3 *1193:A1 0.000887016
7 *1179:A1 *289:10 1.07281e-05
8 *1189:A1 *1193:A1 0.000158798
9 *1189:A2 *1193:A1 8.58429e-05
10 *1200:A1 *1183:A1 1.17652e-05
11 *1200:A1 *1193:A1 2.58224e-05
12 *1201:A4 *289:10 1.71254e-05
13 *252:12 *289:10 0
14 *285:10 *289:10 0.000126969
*RES
1 *1395:Z *289:10 15.21 
2 *289:10 *1183:A1 4.77 
3 *289:10 *1193:A1 6.93 
*END

*D_NET *290 0.00368832
*CONN
*I *1319:A1 I *D gf180mcu_fd_sc_mcu7t5v0__nand3_1
*I *1267:A2 I *D gf180mcu_fd_sc_mcu7t5v0__xor2_1
*I *1336:Q O *D gf180mcu_fd_sc_mcu7t5v0__dffrnq_1
*CAP
1 *1319:A1 0.000259193
2 *1267:A2 0.000135886
3 *1336:Q 0.000610605
4 *290:8 0.00100568
5 *1311:I1 *1267:A2 0.000526079
6 *1320:A2 *1319:A1 4.80547e-05
7 *1320:B *1319:A1 0.000679308
8 *1370:I *290:8 0
9 *253:12 *1267:A2 0.000110107
10 *253:12 *290:8 0.00024146
11 *278:8 *290:8 4.22826e-05
12 *278:12 *1267:A2 8.54106e-06
13 *278:12 *290:8 2.1117e-05
14 *284:48 *290:8 0
*RES
1 *1336:Q *290:8 13.95 
2 *290:8 *1267:A2 10.71 
3 *290:8 *1319:A1 11.34 
*END

*D_NET *291 0.00442628
*CONN
*I *1154:I I *D gf180mcu_fd_sc_mcu7t5v0__clkinv_1
*I *1270:A1 I *D gf180mcu_fd_sc_mcu7t5v0__oai21_1
*I *1213:A1 I *D gf180mcu_fd_sc_mcu7t5v0__nor2_1
*I *1215:A1 I *D gf180mcu_fd_sc_mcu7t5v0__nor3_1
*I *1321:Q O *D gf180mcu_fd_sc_mcu7t5v0__dffrnq_1
*CAP
1 *1154:I 0.000107409
2 *1270:A1 0.000194973
3 *1213:A1 0
4 *1215:A1 0
5 *1321:Q 0.000260399
6 *291:21 0.000270529
7 *291:14 0.000420963
8 *291:8 0.000713216
9 err_overflow_o *1154:I 1.68605e-05
10 err_overflow_o *291:8 0.000133717
11 *1214:A1 *291:14 2.93938e-05
12 *1214:A1 *291:21 3.97987e-05
13 *1214:A2 *1270:A1 7.55765e-06
14 *1214:A2 *291:21 6.32382e-05
15 *1215:A2 *291:14 5.92385e-05
16 *1216:A1 *1154:I 8.66127e-05
17 *1216:A1 *291:14 0.000252977
18 *1266:A2 *1270:A1 0
19 *1271:I *1270:A1 0.000429821
20 *1271:I *291:14 0.000106536
21 *1271:I *291:21 0.000529615
22 *1388:I *291:8 1.0415e-05
23 *1398:I *291:14 0.000145193
24 *1408:I *1270:A1 3.55118e-05
25 *1408:I *291:14 0
26 *1408:I *291:21 0.000177559
27 *261:8 *291:14 5.53168e-05
28 *283:48 *291:8 4.55966e-05
29 *284:31 *1270:A1 0.000233831
*RES
1 *1321:Q *291:8 11.07 
2 *291:8 *291:14 8.1 
3 *291:14 *1215:A1 4.5 
4 *291:14 *291:21 1.53 
5 *291:21 *1213:A1 4.5 
6 *291:21 *1270:A1 7.29 
7 *291:8 *1154:I 9.99 
*END

*D_NET *292 0.00589435
*CONN
*I *1274:A2 I *D gf180mcu_fd_sc_mcu7t5v0__xnor2_1
*I *1312:A1 I *D gf180mcu_fd_sc_mcu7t5v0__nand2_1
*I *1316:A1 I *D gf180mcu_fd_sc_mcu7t5v0__nand4_1
*I *1314:A1 I *D gf180mcu_fd_sc_mcu7t5v0__aoi21_1
*I *1311:S I *D gf180mcu_fd_sc_mcu7t5v0__mux2_2
*I *1333:Q O *D gf180mcu_fd_sc_mcu7t5v0__dffrnq_1
*CAP
1 *1274:A2 0.000135055
2 *1312:A1 0
3 *1316:A1 9.5825e-05
4 *1314:A1 3.14355e-05
5 *1311:S 0.000145955
6 *1333:Q 0.000114974
7 *292:41 0.000228907
8 *292:25 0.000295731
9 *292:21 0.000595808
10 *292:8 0.000594415
11 *1273:A2 *1274:A2 0.000364412
12 *1273:A2 *292:41 0.000109323
13 *1275:A2 *1274:A2 0.000291668
14 *1275:A2 *292:41 8.56272e-05
15 *1277:A1 *1274:A2 1.14516e-05
16 *1311:I0 *1311:S 5.97457e-06
17 *1311:I0 *292:8 3.58474e-05
18 *1313:A1 *1274:A2 0.000169524
19 *1313:A2 *1274:A2 0.000185466
20 *1316:A2 *1314:A1 3.12451e-05
21 *1316:A2 *1316:A1 0.000119192
22 *1316:A4 *1316:A1 2.40587e-06
23 *64:6 *1314:A1 1.07374e-05
24 *64:6 *1316:A1 6.76694e-05
25 *64:12 *1314:A1 2.31089e-05
26 *64:12 *292:25 0.000166798
27 *64:23 *292:25 0.000573266
28 *64:23 *292:41 0.000653381
29 *100:8 *292:25 3.31517e-06
30 *100:8 *292:41 1.18076e-06
31 *193:10 *1274:A2 8.68398e-06
32 *217:20 *1311:S 0.0001185
33 *217:20 *292:21 9.43651e-05
34 *241:77 *1316:A1 2.40587e-06
35 *282:12 *292:21 3.56634e-05
36 *282:23 *292:21 0.000372026
37 *282:31 *292:25 0.000113004
*RES
1 *1333:Q *292:8 5.4 
2 *292:8 *1311:S 5.58 
3 *292:8 *292:21 7.83 
4 *292:21 *292:25 6.39 
5 *292:25 *1314:A1 4.77 
6 *292:25 *1316:A1 5.49 
7 *292:21 *292:41 1.89 
8 *292:41 *1312:A1 9 
9 *292:41 *1274:A2 11.16 
*END

*D_NET *293 0.000476732
*CONN
*I *1265:A2 I *D gf180mcu_fd_sc_mcu7t5v0__or2_1
*I *1354:Q O *D gf180mcu_fd_sc_mcu7t5v0__dffsnq_1
*CAP
1 *1265:A2 0.000222814
2 *1354:Q 0.000222814
3 *1155:I *1265:A2 3.1104e-05
*RES
1 *1354:Q *1265:A2 10.44 
*END

*D_NET *294 0.00419523
*CONN
*I *1141:I I *D gf180mcu_fd_sc_mcu7t5v0__clkinv_1
*I *1165:A2 I *D gf180mcu_fd_sc_mcu7t5v0__nor2_1
*I *1355:Q O *D gf180mcu_fd_sc_mcu7t5v0__dffsnq_1
*CAP
1 *1141:I 9.39507e-05
2 *1165:A2 0.000211349
3 *1355:Q 0.00042102
4 *294:10 0.00072632
5 *1165:A1 *1165:A2 1.61174e-05
6 *1269:A1 *1141:I 9.43472e-05
7 *1269:A1 *294:10 0.000193387
8 *1272:A1 *294:10 0.00150801
9 *1278:A1 *1141:I 5.41256e-05
10 *1278:A1 *294:10 8.02683e-05
11 *1278:A2 *1165:A2 0.00027566
12 *1278:B1 *294:10 0.000100966
13 *1279:A2 *1165:A2 4.34467e-06
14 *152:8 *294:10 0.000140012
15 *194:19 *1141:I 9.04539e-05
16 *194:19 *1165:A2 4.8152e-06
17 *197:16 *1165:A2 0.000112936
18 *197:16 *294:10 5.7182e-05
19 *283:54 *294:10 9.96882e-06
*RES
1 *1355:Q *294:10 14.76 
2 *294:10 *1165:A2 10.89 
3 *294:10 *1141:I 10.44 
*END

*D_NET *295 0.0137194
*CONN
*I *1298:A1 I *D gf180mcu_fd_sc_mcu7t5v0__nand2_1
*I *1304:A1 I *D gf180mcu_fd_sc_mcu7t5v0__oai211_1
*I *1307:A1 I *D gf180mcu_fd_sc_mcu7t5v0__nand3_1
*I *1140:I I *D gf180mcu_fd_sc_mcu7t5v0__clkinv_1
*I *1166:A2 I *D gf180mcu_fd_sc_mcu7t5v0__nand4_1
*I *1356:Q O *D gf180mcu_fd_sc_mcu7t5v0__dffsnq_1
*CAP
1 *1298:A1 0
2 *1304:A1 0
3 *1307:A1 0.000495896
4 *1140:I 0
5 *1166:A2 0.000445585
6 *1356:Q 0.000917412
7 *295:36 0.000608322
8 *295:30 0.0004627
9 *295:23 0.000845422
10 *295:12 0.00185815
11 *1267:A1 *295:23 0.00090608
12 *1278:A1 *1166:A2 0
13 *1291:S *1307:A1 0.000361611
14 *1300:A2 *295:36 8.05203e-05
15 *1304:B *1307:A1 3.01487e-05
16 *1320:A1 *295:12 0
17 *1332:CLK *295:23 8.87455e-05
18 *1368:I *295:23 0.00145683
19 *1368:I *295:30 0.0014461
20 *84:26 *295:23 2.32439e-05
21 *186:10 *295:12 0
22 *186:10 *295:23 0.000118113
23 *194:19 *1166:A2 0
24 *205:10 *1166:A2 0
25 *205:10 *295:23 0
26 *240:58 *1166:A2 0.000319216
27 *240:66 *1166:A2 0.000496785
28 *244:67 *295:12 2.20741e-05
29 *244:69 *1166:A2 1.06178e-05
30 *244:69 *295:12 1.08206e-05
31 *244:69 *295:23 6.47918e-05
32 *244:78 *1166:A2 0
33 *244:107 *295:23 2.03496e-05
34 *246:10 *295:36 0.000174497
35 *246:12 *295:36 0.000684683
36 *246:14 *295:36 0.000729309
37 *253:12 *295:12 0
38 *257:14 *295:36 0.00104139
39 *283:54 *295:12 0
*RES
1 *1356:Q *295:12 20.34 
2 *295:12 *1166:A2 8.1 
3 *295:12 *295:23 7.29 
4 *295:23 *1140:I 4.5 
5 *295:23 *295:30 3.87 
6 *295:30 *295:36 12.87 
7 *295:36 *1307:A1 17.64 
8 *295:36 *1304:A1 4.5 
9 *295:30 *1298:A1 4.5 
*END
