*SPEF "ieee 1481-1999"
*DESIGN "udma_uart_rx"
*DATE "12:42:46 Sunday July 26, 2026"
*VENDOR "The OpenROAD Project"
*PROGRAM "OpenROAD"
*VERSION "dcf36133a369abc8f3c5e5738cd4d82e4903c0e0"
*DESIGN_FLOW "NAME_SCOPE LOCAL" "PIN_CAP NONE"
*DIVIDER /
*DELIMITER :
*BUS_DELIMITER []
*T_UNIT 1 NS
*C_UNIT 1 PF
*R_UNIT 1 OHM
*L_UNIT 1 HENRY

*NAME_MAP
*3 busy_o
*4 cfg_bits_i[0]
*5 cfg_bits_i[1]
*6 cfg_div_i[0]
*7 cfg_div_i[10]
*8 cfg_div_i[11]
*9 cfg_div_i[12]
*10 cfg_div_i[13]
*11 cfg_div_i[14]
*12 cfg_div_i[15]
*13 cfg_div_i[1]
*14 cfg_div_i[2]
*15 cfg_div_i[3]
*16 cfg_div_i[4]
*17 cfg_div_i[5]
*18 cfg_div_i[6]
*19 cfg_div_i[7]
*20 cfg_div_i[8]
*21 cfg_div_i[9]
*22 cfg_en_i
*23 cfg_parity_en_i
*24 cfg_stop_bits_i
*25 char_event_o
*26 clk_i
*27 err_overflow_o
*28 err_parity_o
*29 rstn_i
*30 rx_data_o[0]
*31 rx_data_o[1]
*32 rx_data_o[2]
*33 rx_data_o[3]
*34 rx_data_o[4]
*35 rx_data_o[5]
*36 rx_data_o[6]
*37 rx_data_o[7]
*38 rx_i
*39 rx_ready_i
*40 rx_valid_o
*41 CS\[0\]
*42 CS\[1\]
*43 CS\[2\]
*44 _000_
*45 _001_
*46 _002_
*47 _003_
*48 _004_
*49 _005_
*50 _006_
*51 _007_
*52 _008_
*53 _009_
*54 _010_
*55 _011_
*56 _012_
*57 _013_
*58 _014_
*59 _015_
*60 _016_
*61 _017_
*62 _018_
*63 _019_
*64 _020_
*65 _021_
*66 _022_
*67 _023_
*68 _024_
*69 _025_
*70 _026_
*71 _027_
*72 _028_
*73 _029_
*74 _030_
*75 _031_
*76 _032_
*77 _033_
*78 _034_
*79 _035_
*80 _036_
*81 _037_
*82 _038_
*83 _039_
*84 _040_
*85 _041_
*86 _042_
*87 _043_
*88 _044_
*89 _045_
*90 _046_
*91 _047_
*92 _048_
*93 _049_
*94 _050_
*95 _051_
*96 _052_
*97 _053_
*98 _054_
*99 _055_
*100 _056_
*101 _057_
*102 _058_
*103 _059_
*104 _060_
*105 _061_
*106 _062_
*107 _063_
*108 _064_
*109 _065_
*110 _066_
*111 _067_
*112 _068_
*113 _069_
*114 _070_
*115 _071_
*116 _072_
*117 _073_
*118 _074_
*119 _075_
*120 _076_
*121 _077_
*122 _078_
*123 _079_
*124 _080_
*125 _081_
*126 _082_
*127 _083_
*128 _084_
*129 _085_
*130 _086_
*131 _087_
*132 _088_
*133 _089_
*134 _090_
*135 _091_
*136 _092_
*137 _093_
*138 _094_
*139 _095_
*140 _096_
*141 _097_
*142 _098_
*143 _099_
*144 _100_
*145 _101_
*146 _102_
*147 _103_
*148 _104_
*149 _105_
*150 _106_
*151 _107_
*152 _108_
*153 _109_
*154 _110_
*155 _111_
*156 _112_
*157 _113_
*158 _114_
*159 _115_
*160 _116_
*161 _117_
*162 _118_
*163 _119_
*164 _120_
*165 _121_
*166 _122_
*167 _123_
*168 _124_
*169 _125_
*170 _126_
*171 _127_
*172 _128_
*173 _129_
*174 _130_
*175 _131_
*176 _132_
*177 _133_
*178 _134_
*179 _135_
*180 _136_
*181 _137_
*182 _138_
*183 _139_
*184 _140_
*185 _141_
*186 _142_
*187 _143_
*188 _144_
*189 _145_
*190 _146_
*191 _147_
*192 _148_
*193 _149_
*194 _150_
*195 _151_
*196 _152_
*197 _153_
*198 _154_
*199 _155_
*200 _156_
*201 _157_
*202 _158_
*203 _159_
*204 _160_
*205 _161_
*206 _162_
*207 _163_
*208 _164_
*209 _165_
*210 _166_
*211 _167_
*212 _168_
*213 _169_
*214 _170_
*215 _171_
*216 _172_
*217 _173_
*218 _174_
*219 _175_
*220 _176_
*221 _177_
*222 _178_
*223 _179_
*224 baud_cnt\[0\]
*225 baud_cnt\[10\]
*226 baud_cnt\[11\]
*227 baud_cnt\[12\]
*228 baud_cnt\[13\]
*229 baud_cnt\[14\]
*230 baud_cnt\[15\]
*231 baud_cnt\[1\]
*232 baud_cnt\[2\]
*233 baud_cnt\[3\]
*234 baud_cnt\[4\]
*235 baud_cnt\[5\]
*236 baud_cnt\[6\]
*237 baud_cnt\[7\]
*238 baud_cnt\[8\]
*239 baud_cnt\[9\]
*240 bit_done
*241 clknet_0_clk_i
*242 clknet_2_0__leaf_clk_i
*243 clknet_2_1__leaf_clk_i
*244 clknet_2_2__leaf_clk_i
*245 clknet_2_3__leaf_clk_i
*246 net1
*247 net10
*248 net11
*249 net12
*250 net13
*251 net14
*252 net15
*253 net16
*254 net17
*255 net18
*256 net19
*257 net2
*258 net20
*259 net21
*260 net22
*261 net23
*262 net24
*263 net25
*264 net26
*265 net27
*266 net28
*267 net29
*268 net3
*269 net30
*270 net31
*271 net32
*272 net33
*273 net34
*274 net35
*275 net36
*276 net37
*277 net38
*278 net39
*279 net4
*280 net40
*281 net41
*282 net42
*283 net43
*284 net44
*285 net5
*286 net6
*287 net7
*288 net8
*289 net9
*290 parity_bit
*291 r_error_parity
*292 reg_bit_count
*293 reg_rx_sync\[0\]
*294 reg_rx_sync\[1\]
*295 reg_rx_sync\[2\]
*296 FILLER_0_104
*297 FILLER_0_138
*298 FILLER_0_155
*299 FILLER_0_163
*300 FILLER_0_167
*301 FILLER_0_169
*302 FILLER_0_172
*303 FILLER_0_2
*304 FILLER_0_206
*305 FILLER_0_240
*306 FILLER_0_248
*307 FILLER_0_250
*308 FILLER_0_36
*309 FILLER_0_70
*310 FILLER_10_103
*311 FILLER_10_107
*312 FILLER_10_115
*313 FILLER_10_119
*314 FILLER_10_154
*315 FILLER_10_16
*316 FILLER_10_170
*317 FILLER_10_174
*318 FILLER_10_183
*319 FILLER_10_191
*320 FILLER_10_195
*321 FILLER_10_2
*322 FILLER_10_209
*323 FILLER_10_217
*324 FILLER_10_32
*325 FILLER_10_34
*326 FILLER_10_37
*327 FILLER_10_61
*328 FILLER_10_77
*329 FILLER_10_82
*330 FILLER_10_99
*331 FILLER_11_10
*332 FILLER_11_107
*333 FILLER_11_111
*334 FILLER_11_117
*335 FILLER_11_133
*336 FILLER_11_137
*337 FILLER_11_139
*338 FILLER_11_142
*339 FILLER_11_182
*340 FILLER_11_192
*341 FILLER_11_2
*342 FILLER_11_200
*343 FILLER_11_219
*344 FILLER_11_23
*345 FILLER_11_55
*346 FILLER_11_63
*347 FILLER_11_67
*348 FILLER_11_69
*349 FILLER_11_72
*350 FILLER_11_88
*351 FILLER_11_99
*352 FILLER_12_107
*353 FILLER_12_111
*354 FILLER_12_129
*355 FILLER_12_161
*356 FILLER_12_169
*357 FILLER_12_173
*358 FILLER_12_177
*359 FILLER_12_19
*360 FILLER_12_2
*361 FILLER_12_209
*362 FILLER_12_225
*363 FILLER_12_247
*364 FILLER_12_27
*365 FILLER_12_29
*366 FILLER_12_34
*367 FILLER_12_37
*368 FILLER_12_53
*369 FILLER_12_57
*370 FILLER_12_59
*371 FILLER_12_6
*372 FILLER_12_73
*373 FILLER_12_81
*374 FILLER_12_97
*375 FILLER_13_129
*376 FILLER_13_137
*377 FILLER_13_139
*378 FILLER_13_142
*379 FILLER_13_174
*380 FILLER_13_182
*381 FILLER_13_196
*382 FILLER_13_200
*383 FILLER_13_207
*384 FILLER_13_209
*385 FILLER_13_212
*386 FILLER_13_220
*387 FILLER_13_232
*388 FILLER_13_234
*389 FILLER_13_30
*390 FILLER_13_62
*391 FILLER_13_72
*392 FILLER_13_74
*393 FILLER_14_103
*394 FILLER_14_107
*395 FILLER_14_123
*396 FILLER_14_131
*397 FILLER_14_135
*398 FILLER_14_137
*399 FILLER_14_151
*400 FILLER_14_177
*401 FILLER_14_18
*402 FILLER_14_193
*403 FILLER_14_201
*404 FILLER_14_211
*405 FILLER_14_213
*406 FILLER_14_222
*407 FILLER_14_238
*408 FILLER_14_242
*409 FILLER_14_244
*410 FILLER_14_247
*411 FILLER_14_32
*412 FILLER_14_34
*413 FILLER_14_37
*414 FILLER_14_41
*415 FILLER_14_43
*416 FILLER_14_57
*417 FILLER_14_65
*418 FILLER_14_77
*419 FILLER_14_87
*420 FILLER_15_108
*421 FILLER_15_112
*422 FILLER_15_114
*423 FILLER_15_130
*424 FILLER_15_138
*425 FILLER_15_176
*426 FILLER_15_188
*427 FILLER_15_196
*428 FILLER_15_204
*429 FILLER_15_212
*430 FILLER_15_219
*431 FILLER_15_30
*432 FILLER_15_34
*433 FILLER_15_48
*434 FILLER_15_64
*435 FILLER_15_68
*436 FILLER_15_72
*437 FILLER_15_83
*438 FILLER_16_104
*439 FILLER_16_107
*440 FILLER_16_109
*441 FILLER_16_126
*442 FILLER_16_142
*443 FILLER_16_150
*444 FILLER_16_162
*445 FILLER_16_170
*446 FILLER_16_174
*447 FILLER_16_177
*448 FILLER_16_181
*449 FILLER_16_199
*450 FILLER_16_207
*451 FILLER_16_247
*452 FILLER_16_28
*453 FILLER_16_32
*454 FILLER_16_34
*455 FILLER_16_37
*456 FILLER_16_41
*457 FILLER_16_58
*458 FILLER_16_60
*459 FILLER_16_88
*460 FILLER_16_92
*461 FILLER_17_104
*462 FILLER_17_112
*463 FILLER_17_116
*464 FILLER_17_130
*465 FILLER_17_138
*466 FILLER_17_142
*467 FILLER_17_150
*468 FILLER_17_204
*469 FILLER_17_208
*470 FILLER_17_212
*471 FILLER_17_214
*472 FILLER_17_223
*473 FILLER_17_239
*474 FILLER_17_247
*475 FILLER_17_28
*476 FILLER_17_32
*477 FILLER_17_45
*478 FILLER_17_61
*479 FILLER_17_69
*480 FILLER_17_72
*481 FILLER_18_107
*482 FILLER_18_109
*483 FILLER_18_177
*484 FILLER_18_186
*485 FILLER_18_195
*486 FILLER_18_247
*487 FILLER_18_31
*488 FILLER_18_49
*489 FILLER_18_81
*490 FILLER_18_97
*491 FILLER_19_106
*492 FILLER_19_110
*493 FILLER_19_112
*494 FILLER_19_130
*495 FILLER_19_138
*496 FILLER_19_192
*497 FILLER_19_208
*498 FILLER_19_212
*499 FILLER_19_232
*500 FILLER_19_234
*501 FILLER_19_30
*502 FILLER_19_38
*503 FILLER_19_42
*504 FILLER_19_52
*505 FILLER_19_56
*506 FILLER_19_69
*507 FILLER_19_72
*508 FILLER_19_80
*509 FILLER_19_84
*510 FILLER_19_98
*511 FILLER_1_136
*512 FILLER_1_142
*513 FILLER_1_2
*514 FILLER_1_206
*515 FILLER_1_212
*516 FILLER_1_244
*517 FILLER_1_248
*518 FILLER_1_250
*519 FILLER_1_66
*520 FILLER_1_72
*521 FILLER_20_107
*522 FILLER_20_109
*523 FILLER_20_122
*524 FILLER_20_154
*525 FILLER_20_170
*526 FILLER_20_174
*527 FILLER_20_177
*528 FILLER_20_209
*529 FILLER_20_211
*530 FILLER_20_219
*531 FILLER_20_235
*532 FILLER_20_243
*533 FILLER_20_247
*534 FILLER_20_30
*535 FILLER_20_34
*536 FILLER_20_37
*537 FILLER_20_45
*538 FILLER_20_49
*539 FILLER_20_60
*540 FILLER_20_76
*541 FILLER_20_88
*542 FILLER_21_130
*543 FILLER_21_138
*544 FILLER_21_142
*545 FILLER_21_150
*546 FILLER_21_166
*547 FILLER_21_174
*548 FILLER_21_178
*549 FILLER_21_198
*550 FILLER_21_206
*551 FILLER_21_212
*552 FILLER_21_228
*553 FILLER_21_234
*554 FILLER_21_250
*555 FILLER_21_30
*556 FILLER_21_32
*557 FILLER_21_47
*558 FILLER_21_63
*559 FILLER_21_68
*560 FILLER_21_72
*561 FILLER_22_104
*562 FILLER_22_107
*563 FILLER_22_123
*564 FILLER_22_125
*565 FILLER_22_160
*566 FILLER_22_170
*567 FILLER_22_18
*568 FILLER_22_197
*569 FILLER_22_20
*570 FILLER_22_247
*571 FILLER_22_33
*572 FILLER_22_49
*573 FILLER_22_69
*574 FILLER_22_88
*575 FILLER_23_100
*576 FILLER_23_136
*577 FILLER_23_142
*578 FILLER_23_196
*579 FILLER_23_204
*580 FILLER_23_208
*581 FILLER_23_212
*582 FILLER_23_221
*583 FILLER_23_229
*584 FILLER_23_34
*585 FILLER_23_38
*586 FILLER_23_63
*587 FILLER_23_67
*588 FILLER_23_69
*589 FILLER_23_72
*590 FILLER_23_92
*591 FILLER_24_107
*592 FILLER_24_139
*593 FILLER_24_155
*594 FILLER_24_157
*595 FILLER_24_166
*596 FILLER_24_174
*597 FILLER_24_177
*598 FILLER_24_18
*599 FILLER_24_181
*600 FILLER_24_183
*601 FILLER_24_192
*602 FILLER_24_224
*603 FILLER_24_228
*604 FILLER_24_247
*605 FILLER_24_34
*606 FILLER_24_37
*607 FILLER_24_69
*608 FILLER_25_136
*609 FILLER_25_142
*610 FILLER_25_184
*611 FILLER_25_188
*612 FILLER_25_197
*613 FILLER_25_2
*614 FILLER_25_212
*615 FILLER_25_220
*616 FILLER_25_224
*617 FILLER_25_38
*618 FILLER_25_72
*619 FILLER_26_100
*620 FILLER_26_104
*621 FILLER_26_107
*622 FILLER_26_115
*623 FILLER_26_153
*624 FILLER_26_169
*625 FILLER_26_17
*626 FILLER_26_173
*627 FILLER_26_177
*628 FILLER_26_196
*629 FILLER_26_2
*630 FILLER_26_204
*631 FILLER_26_208
*632 FILLER_26_215
*633 FILLER_26_223
*634 FILLER_26_225
*635 FILLER_26_244
*636 FILLER_26_247
*637 FILLER_26_33
*638 FILLER_26_37
*639 FILLER_26_53
*640 FILLER_26_6
*641 FILLER_26_61
*642 FILLER_26_63
*643 FILLER_26_72
*644 FILLER_26_80
*645 FILLER_26_84
*646 FILLER_26_92
*647 FILLER_27_100
*648 FILLER_27_116
*649 FILLER_27_129
*650 FILLER_27_137
*651 FILLER_27_139
*652 FILLER_27_142
*653 FILLER_27_16
*654 FILLER_27_174
*655 FILLER_27_190
*656 FILLER_27_198
*657 FILLER_27_2
*658 FILLER_27_212
*659 FILLER_27_214
*660 FILLER_27_24
*661 FILLER_27_28
*662 FILLER_27_30
*663 FILLER_27_81
*664 FILLER_27_90
*665 FILLER_28_101
*666 FILLER_28_107
*667 FILLER_28_115
*668 FILLER_28_119
*669 FILLER_28_121
*670 FILLER_28_128
*671 FILLER_28_177
*672 FILLER_28_18
*673 FILLER_28_185
*674 FILLER_28_189
*675 FILLER_28_2
*676 FILLER_28_226
*677 FILLER_28_228
*678 FILLER_28_247
*679 FILLER_28_34
*680 FILLER_28_37
*681 FILLER_28_41
*682 FILLER_28_50
*683 FILLER_28_66
*684 FILLER_28_68
*685 FILLER_28_75
*686 FILLER_28_91
*687 FILLER_29_129
*688 FILLER_29_137
*689 FILLER_29_139
*690 FILLER_29_142
*691 FILLER_29_179
*692 FILLER_29_187
*693 FILLER_29_212
*694 FILLER_29_228
*695 FILLER_29_232
*696 FILLER_29_234
*697 FILLER_29_44
*698 FILLER_29_60
*699 FILLER_29_68
*700 FILLER_29_72
*701 FILLER_29_88
*702 FILLER_29_92
*703 FILLER_29_94
*704 FILLER_2_101
*705 FILLER_2_107
*706 FILLER_2_171
*707 FILLER_2_177
*708 FILLER_2_2
*709 FILLER_2_209
*710 FILLER_2_225
*711 FILLER_2_247
*712 FILLER_2_34
*713 FILLER_2_37
*714 FILLER_30_103
*715 FILLER_30_107
*716 FILLER_30_171
*717 FILLER_30_177
*718 FILLER_30_2
*719 FILLER_30_201
*720 FILLER_30_22
*721 FILLER_30_233
*722 FILLER_30_241
*723 FILLER_30_247
*724 FILLER_30_30
*725 FILLER_30_34
*726 FILLER_30_37
*727 FILLER_30_51
*728 FILLER_30_6
*729 FILLER_30_67
*730 FILLER_30_77
*731 FILLER_30_87
*732 FILLER_31_123
*733 FILLER_31_139
*734 FILLER_31_142
*735 FILLER_31_158
*736 FILLER_31_162
*737 FILLER_31_164
*738 FILLER_31_18
*739 FILLER_31_180
*740 FILLER_31_188
*741 FILLER_31_190
*742 FILLER_31_2
*743 FILLER_31_206
*744 FILLER_31_212
*745 FILLER_31_244
*746 FILLER_31_248
*747 FILLER_31_250
*748 FILLER_31_26
*749 FILLER_31_30
*750 FILLER_31_32
*751 FILLER_31_67
*752 FILLER_31_69
*753 FILLER_31_72
*754 FILLER_31_74
*755 FILLER_31_91
*756 FILLER_32_100
*757 FILLER_32_104
*758 FILLER_32_107
*759 FILLER_32_123
*760 FILLER_32_131
*761 FILLER_32_171
*762 FILLER_32_177
*763 FILLER_32_185
*764 FILLER_32_187
*765 FILLER_32_2
*766 FILLER_32_239
*767 FILLER_32_243
*768 FILLER_32_247
*769 FILLER_32_34
*770 FILLER_32_37
*771 FILLER_32_44
*772 FILLER_32_60
*773 FILLER_32_64
*774 FILLER_33_136
*775 FILLER_33_142
*776 FILLER_33_158
*777 FILLER_33_198
*778 FILLER_33_2
*779 FILLER_33_206
*780 FILLER_33_212
*781 FILLER_33_214
*782 FILLER_33_66
*783 FILLER_33_72
*784 FILLER_34_101
*785 FILLER_34_107
*786 FILLER_34_139
*787 FILLER_34_147
*788 FILLER_34_151
*789 FILLER_34_153
*790 FILLER_34_169
*791 FILLER_34_173
*792 FILLER_34_193
*793 FILLER_34_2
*794 FILLER_34_213
*795 FILLER_34_247
*796 FILLER_34_34
*797 FILLER_34_37
*798 FILLER_35_104
*799 FILLER_35_138
*800 FILLER_35_188
*801 FILLER_35_2
*802 FILLER_35_206
*803 FILLER_35_240
*804 FILLER_35_248
*805 FILLER_35_250
*806 FILLER_35_36
*807 FILLER_35_70
*808 FILLER_3_104
*809 FILLER_3_120
*810 FILLER_3_128
*811 FILLER_3_142
*812 FILLER_3_158
*813 FILLER_3_166
*814 FILLER_3_18
*815 FILLER_3_2
*816 FILLER_3_201
*817 FILLER_3_209
*818 FILLER_3_212
*819 FILLER_3_228
*820 FILLER_3_232
*821 FILLER_3_234
*822 FILLER_3_26
*823 FILLER_3_28
*824 FILLER_3_63
*825 FILLER_3_67
*826 FILLER_3_69
*827 FILLER_3_72
*828 FILLER_4_102
*829 FILLER_4_104
*830 FILLER_4_107
*831 FILLER_4_115
*832 FILLER_4_117
*833 FILLER_4_154
*834 FILLER_4_162
*835 FILLER_4_174
*836 FILLER_4_177
*837 FILLER_4_193
*838 FILLER_4_2
*839 FILLER_4_201
*840 FILLER_4_211
*841 FILLER_4_227
*842 FILLER_4_247
*843 FILLER_4_34
*844 FILLER_4_37
*845 FILLER_4_53
*846 FILLER_4_55
*847 FILLER_4_90
*848 FILLER_4_98
*849 FILLER_5_121
*850 FILLER_5_137
*851 FILLER_5_139
*852 FILLER_5_142
*853 FILLER_5_144
*854 FILLER_5_153
*855 FILLER_5_158
*856 FILLER_5_166
*857 FILLER_5_170
*858 FILLER_5_186
*859 FILLER_5_246
*860 FILLER_5_250
*861 FILLER_5_36
*862 FILLER_5_68
*863 FILLER_5_72
*864 FILLER_5_80
*865 FILLER_5_84
*866 FILLER_5_86
*867 FILLER_6_102
*868 FILLER_6_104
*869 FILLER_6_107
*870 FILLER_6_139
*871 FILLER_6_14
*872 FILLER_6_143
*873 FILLER_6_151
*874 FILLER_6_167
*875 FILLER_6_177
*876 FILLER_6_2
*877 FILLER_6_209
*878 FILLER_6_22
*879 FILLER_6_225
*880 FILLER_6_24
*881 FILLER_6_247
*882 FILLER_6_45
*883 FILLER_6_53
*884 FILLER_6_6
*885 FILLER_6_62
*886 FILLER_6_78
*887 FILLER_6_86
*888 FILLER_6_98
*889 FILLER_7_109
*890 FILLER_7_132
*891 FILLER_7_158
*892 FILLER_7_18
*893 FILLER_7_182
*894 FILLER_7_190
*895 FILLER_7_194
*896 FILLER_7_2
*897 FILLER_7_212
*898 FILLER_7_216
*899 FILLER_7_218
*900 FILLER_7_22
*901 FILLER_7_24
*902 FILLER_7_33
*903 FILLER_7_65
*904 FILLER_7_69
*905 FILLER_7_72
*906 FILLER_7_80
*907 FILLER_7_84
*908 FILLER_7_93
*909 FILLER_8_103
*910 FILLER_8_190
*911 FILLER_8_197
*912 FILLER_8_2
*913 FILLER_8_210
*914 FILLER_8_247
*915 FILLER_8_34
*916 FILLER_8_37
*917 FILLER_8_87
*918 FILLER_9_104
*919 FILLER_9_119
*920 FILLER_9_135
*921 FILLER_9_139
*922 FILLER_9_142
*923 FILLER_9_2
*924 FILLER_9_206
*925 FILLER_9_212
*926 FILLER_9_220
*927 FILLER_9_222
*928 FILLER_9_38
*929 FILLER_9_54
*930 FILLER_9_61
*931 FILLER_9_69
*932 FILLER_9_72
*933 PHY_EDGE_ROW_0_Left_36
*934 PHY_EDGE_ROW_0_Right_0
*935 PHY_EDGE_ROW_10_Left_46
*936 PHY_EDGE_ROW_10_Right_10
*937 PHY_EDGE_ROW_11_Left_47
*938 PHY_EDGE_ROW_11_Right_11
*939 PHY_EDGE_ROW_12_Left_48
*940 PHY_EDGE_ROW_12_Right_12
*941 PHY_EDGE_ROW_13_Left_49
*942 PHY_EDGE_ROW_13_Right_13
*943 PHY_EDGE_ROW_14_Left_50
*944 PHY_EDGE_ROW_14_Right_14
*945 PHY_EDGE_ROW_15_Left_51
*946 PHY_EDGE_ROW_15_Right_15
*947 PHY_EDGE_ROW_16_Left_52
*948 PHY_EDGE_ROW_16_Right_16
*949 PHY_EDGE_ROW_17_Left_53
*950 PHY_EDGE_ROW_17_Right_17
*951 PHY_EDGE_ROW_18_Left_54
*952 PHY_EDGE_ROW_18_Right_18
*953 PHY_EDGE_ROW_19_Left_55
*954 PHY_EDGE_ROW_19_Right_19
*955 PHY_EDGE_ROW_1_Left_37
*956 PHY_EDGE_ROW_1_Right_1
*957 PHY_EDGE_ROW_20_Left_56
*958 PHY_EDGE_ROW_20_Right_20
*959 PHY_EDGE_ROW_21_Left_57
*960 PHY_EDGE_ROW_21_Right_21
*961 PHY_EDGE_ROW_22_Left_58
*962 PHY_EDGE_ROW_22_Right_22
*963 PHY_EDGE_ROW_23_Left_59
*964 PHY_EDGE_ROW_23_Right_23
*965 PHY_EDGE_ROW_24_Left_60
*966 PHY_EDGE_ROW_24_Right_24
*967 PHY_EDGE_ROW_25_Left_61
*968 PHY_EDGE_ROW_25_Right_25
*969 PHY_EDGE_ROW_26_Left_62
*970 PHY_EDGE_ROW_26_Right_26
*971 PHY_EDGE_ROW_27_Left_63
*972 PHY_EDGE_ROW_27_Right_27
*973 PHY_EDGE_ROW_28_Left_64
*974 PHY_EDGE_ROW_28_Right_28
*975 PHY_EDGE_ROW_29_Left_65
*976 PHY_EDGE_ROW_29_Right_29
*977 PHY_EDGE_ROW_2_Left_38
*978 PHY_EDGE_ROW_2_Right_2
*979 PHY_EDGE_ROW_30_Left_66
*980 PHY_EDGE_ROW_30_Right_30
*981 PHY_EDGE_ROW_31_Left_67
*982 PHY_EDGE_ROW_31_Right_31
*983 PHY_EDGE_ROW_32_Left_68
*984 PHY_EDGE_ROW_32_Right_32
*985 PHY_EDGE_ROW_33_Left_69
*986 PHY_EDGE_ROW_33_Right_33
*987 PHY_EDGE_ROW_34_Left_70
*988 PHY_EDGE_ROW_34_Right_34
*989 PHY_EDGE_ROW_35_Left_71
*990 PHY_EDGE_ROW_35_Right_35
*991 PHY_EDGE_ROW_3_Left_39
*992 PHY_EDGE_ROW_3_Right_3
*993 PHY_EDGE_ROW_4_Left_40
*994 PHY_EDGE_ROW_4_Right_4
*995 PHY_EDGE_ROW_5_Left_41
*996 PHY_EDGE_ROW_5_Right_5
*997 PHY_EDGE_ROW_6_Left_42
*998 PHY_EDGE_ROW_6_Right_6
*999 PHY_EDGE_ROW_7_Left_43
*1000 PHY_EDGE_ROW_7_Right_7
*1001 PHY_EDGE_ROW_8_Left_44
*1002 PHY_EDGE_ROW_8_Right_8
*1003 PHY_EDGE_ROW_9_Left_45
*1004 PHY_EDGE_ROW_9_Right_9
*1005 TAP_TAPCELL_ROW_0_72
*1006 TAP_TAPCELL_ROW_0_73
*1007 TAP_TAPCELL_ROW_0_74
*1008 TAP_TAPCELL_ROW_0_75
*1009 TAP_TAPCELL_ROW_0_76
*1010 TAP_TAPCELL_ROW_0_77
*1011 TAP_TAPCELL_ROW_0_78
*1012 TAP_TAPCELL_ROW_10_110
*1013 TAP_TAPCELL_ROW_10_111
*1014 TAP_TAPCELL_ROW_10_112
*1015 TAP_TAPCELL_ROW_10_113
*1016 TAP_TAPCELL_ROW_11_114
*1017 TAP_TAPCELL_ROW_11_115
*1018 TAP_TAPCELL_ROW_11_116
*1019 TAP_TAPCELL_ROW_12_117
*1020 TAP_TAPCELL_ROW_12_118
*1021 TAP_TAPCELL_ROW_12_119
*1022 TAP_TAPCELL_ROW_12_120
*1023 TAP_TAPCELL_ROW_13_121
*1024 TAP_TAPCELL_ROW_13_122
*1025 TAP_TAPCELL_ROW_13_123
*1026 TAP_TAPCELL_ROW_14_124
*1027 TAP_TAPCELL_ROW_14_125
*1028 TAP_TAPCELL_ROW_14_126
*1029 TAP_TAPCELL_ROW_14_127
*1030 TAP_TAPCELL_ROW_15_128
*1031 TAP_TAPCELL_ROW_15_129
*1032 TAP_TAPCELL_ROW_15_130
*1033 TAP_TAPCELL_ROW_16_131
*1034 TAP_TAPCELL_ROW_16_132
*1035 TAP_TAPCELL_ROW_16_133
*1036 TAP_TAPCELL_ROW_16_134
*1037 TAP_TAPCELL_ROW_17_135
*1038 TAP_TAPCELL_ROW_17_136
*1039 TAP_TAPCELL_ROW_17_137
*1040 TAP_TAPCELL_ROW_18_138
*1041 TAP_TAPCELL_ROW_18_139
*1042 TAP_TAPCELL_ROW_18_140
*1043 TAP_TAPCELL_ROW_18_141
*1044 TAP_TAPCELL_ROW_19_142
*1045 TAP_TAPCELL_ROW_19_143
*1046 TAP_TAPCELL_ROW_19_144
*1047 TAP_TAPCELL_ROW_1_79
*1048 TAP_TAPCELL_ROW_1_80
*1049 TAP_TAPCELL_ROW_1_81
*1050 TAP_TAPCELL_ROW_20_145
*1051 TAP_TAPCELL_ROW_20_146
*1052 TAP_TAPCELL_ROW_20_147
*1053 TAP_TAPCELL_ROW_20_148
*1054 TAP_TAPCELL_ROW_21_149
*1055 TAP_TAPCELL_ROW_21_150
*1056 TAP_TAPCELL_ROW_21_151
*1057 TAP_TAPCELL_ROW_22_152
*1058 TAP_TAPCELL_ROW_22_153
*1059 TAP_TAPCELL_ROW_22_154
*1060 TAP_TAPCELL_ROW_22_155
*1061 TAP_TAPCELL_ROW_23_156
*1062 TAP_TAPCELL_ROW_23_157
*1063 TAP_TAPCELL_ROW_23_158
*1064 TAP_TAPCELL_ROW_24_159
*1065 TAP_TAPCELL_ROW_24_160
*1066 TAP_TAPCELL_ROW_24_161
*1067 TAP_TAPCELL_ROW_24_162
*1068 TAP_TAPCELL_ROW_25_163
*1069 TAP_TAPCELL_ROW_25_164
*1070 TAP_TAPCELL_ROW_25_165
*1071 TAP_TAPCELL_ROW_26_166
*1072 TAP_TAPCELL_ROW_26_167
*1073 TAP_TAPCELL_ROW_26_168
*1074 TAP_TAPCELL_ROW_26_169
*1075 TAP_TAPCELL_ROW_27_170
*1076 TAP_TAPCELL_ROW_27_171
*1077 TAP_TAPCELL_ROW_27_172
*1078 TAP_TAPCELL_ROW_28_173
*1079 TAP_TAPCELL_ROW_28_174
*1080 TAP_TAPCELL_ROW_28_175
*1081 TAP_TAPCELL_ROW_28_176
*1082 TAP_TAPCELL_ROW_29_177
*1083 TAP_TAPCELL_ROW_29_178
*1084 TAP_TAPCELL_ROW_29_179
*1085 TAP_TAPCELL_ROW_2_82
*1086 TAP_TAPCELL_ROW_2_83
*1087 TAP_TAPCELL_ROW_2_84
*1088 TAP_TAPCELL_ROW_2_85
*1089 TAP_TAPCELL_ROW_30_180
*1090 TAP_TAPCELL_ROW_30_181
*1091 TAP_TAPCELL_ROW_30_182
*1092 TAP_TAPCELL_ROW_30_183
*1093 TAP_TAPCELL_ROW_31_184
*1094 TAP_TAPCELL_ROW_31_185
*1095 TAP_TAPCELL_ROW_31_186
*1096 TAP_TAPCELL_ROW_32_187
*1097 TAP_TAPCELL_ROW_32_188
*1098 TAP_TAPCELL_ROW_32_189
*1099 TAP_TAPCELL_ROW_32_190
*1100 TAP_TAPCELL_ROW_33_191
*1101 TAP_TAPCELL_ROW_33_192
*1102 TAP_TAPCELL_ROW_33_193
*1103 TAP_TAPCELL_ROW_34_194
*1104 TAP_TAPCELL_ROW_34_195
*1105 TAP_TAPCELL_ROW_34_196
*1106 TAP_TAPCELL_ROW_34_197
*1107 TAP_TAPCELL_ROW_35_198
*1108 TAP_TAPCELL_ROW_35_199
*1109 TAP_TAPCELL_ROW_35_200
*1110 TAP_TAPCELL_ROW_35_201
*1111 TAP_TAPCELL_ROW_35_202
*1112 TAP_TAPCELL_ROW_35_203
*1113 TAP_TAPCELL_ROW_35_204
*1114 TAP_TAPCELL_ROW_3_86
*1115 TAP_TAPCELL_ROW_3_87
*1116 TAP_TAPCELL_ROW_3_88
*1117 TAP_TAPCELL_ROW_4_89
*1118 TAP_TAPCELL_ROW_4_90
*1119 TAP_TAPCELL_ROW_4_91
*1120 TAP_TAPCELL_ROW_4_92
*1121 TAP_TAPCELL_ROW_5_93
*1122 TAP_TAPCELL_ROW_5_94
*1123 TAP_TAPCELL_ROW_5_95
*1124 TAP_TAPCELL_ROW_6_96
*1125 TAP_TAPCELL_ROW_6_97
*1126 TAP_TAPCELL_ROW_6_98
*1127 TAP_TAPCELL_ROW_6_99
*1128 TAP_TAPCELL_ROW_7_100
*1129 TAP_TAPCELL_ROW_7_101
*1130 TAP_TAPCELL_ROW_7_102
*1131 TAP_TAPCELL_ROW_8_103
*1132 TAP_TAPCELL_ROW_8_104
*1133 TAP_TAPCELL_ROW_8_105
*1134 TAP_TAPCELL_ROW_8_106
*1135 TAP_TAPCELL_ROW_9_107
*1136 TAP_TAPCELL_ROW_9_108
*1137 TAP_TAPCELL_ROW_9_109
*1138 _180_
*1139 _181_
*1140 _182_
*1141 _183_
*1142 _184_
*1143 _185_
*1144 _186_
*1145 _187_
*1146 _188_
*1147 _189_
*1148 _190_
*1149 _191_
*1150 _192_
*1151 _193_
*1152 _194_
*1153 _195_
*1154 _196_
*1155 _197_
*1156 _198_
*1157 _199_
*1158 _200_
*1159 _201_
*1160 _202_
*1161 _203_
*1162 _204_
*1163 _205_
*1164 _206_
*1165 _207_
*1166 _208_
*1167 _209_
*1168 _210_
*1169 _211_
*1170 _212_
*1171 _213_
*1172 _214_
*1173 _215_
*1174 _216_
*1175 _217_
*1176 _218_
*1177 _219_
*1178 _220_
*1179 _221_
*1180 _222_
*1181 _223_
*1182 _224_
*1183 _225_
*1184 _226_
*1185 _227_
*1186 _228_
*1187 _229_
*1188 _230_
*1189 _231_
*1190 _232_
*1191 _233_
*1192 _234_
*1193 _235_
*1194 _236_
*1195 _237_
*1196 _238_
*1197 _239_
*1198 _240_
*1199 _241_
*1200 _242_
*1201 _243_
*1202 _244_
*1203 _245_
*1204 _246_
*1205 _247_
*1206 _248_
*1207 _249_
*1208 _250_
*1209 _251_
*1210 _252_
*1211 _253_
*1212 _254_
*1213 _255_
*1214 _256_
*1215 _257_
*1216 _258_
*1217 _259_
*1218 _260_
*1219 _261_
*1220 _262_
*1221 _263_
*1222 _264_
*1223 _265_
*1224 _266_
*1225 _267_
*1226 _268_
*1227 _269_
*1228 _270_
*1229 _271_
*1230 _272_
*1231 _273_
*1232 _274_
*1233 _275_
*1234 _276_
*1235 _277_
*1236 _278_
*1237 _279_
*1238 _280_
*1239 _281_
*1240 _282_
*1241 _283_
*1242 _284_
*1243 _285_
*1244 _286_
*1245 _287_
*1246 _288_
*1247 _289_
*1248 _290_
*1249 _291_
*1250 _292_
*1251 _293_
*1252 _294_
*1253 _295_
*1254 _296_
*1255 _297_
*1256 _298_
*1257 _299_
*1258 _300_
*1259 _301_
*1260 _302_
*1261 _303_
*1262 _304_
*1263 _305_
*1264 _306_
*1265 _307_
*1266 _308_
*1267 _309_
*1268 _310_
*1269 _311_
*1270 _312_
*1271 _313_
*1272 _314_
*1273 _315_
*1274 _316_
*1275 _317_
*1276 _318_
*1277 _319_
*1278 _320_
*1279 _321_
*1280 _322_
*1281 _323_
*1282 _324_
*1283 _325_
*1284 _326_
*1285 _327_
*1286 _328_
*1287 _329_
*1288 _330_
*1289 _331_
*1290 _332_
*1291 _333_
*1292 _334_
*1293 _335_
*1294 _336_
*1295 _337_
*1296 _338_
*1297 _339_
*1298 _340_
*1299 _341_
*1300 _342_
*1301 _343_
*1302 _344_
*1303 _345_
*1304 _346_
*1305 _347_
*1306 _348_
*1307 _349_
*1308 _350_
*1309 _351_
*1310 _352_
*1311 _353_
*1312 _354_
*1313 _355_
*1314 _356_
*1315 _357_
*1316 _358_
*1317 _359_
*1318 _360_
*1319 _361_
*1320 _362_
*1321 _363_
*1322 _364_
*1323 _365_
*1324 _366_
*1325 _367_
*1326 _368_
*1327 _369_
*1328 _370_
*1329 _371_
*1330 _372_
*1331 _373_
*1332 _374_
*1333 _375_
*1334 _376_
*1335 _377_
*1336 _378_
*1337 _379_
*1338 _380_
*1339 _381_
*1340 _382_
*1341 _383_
*1342 _384_
*1343 _385_
*1344 _386_
*1345 _387_
*1346 _388_
*1347 _389_
*1348 _390_
*1349 _391_
*1350 _392_
*1351 _393_
*1352 _394_
*1353 _395_
*1354 _396_
*1355 _397_
*1356 _398_
*1357 clkbuf_0_clk_i
*1358 clkbuf_2_0__f_clk_i
*1359 clkbuf_2_1__f_clk_i
*1360 clkbuf_2_2__f_clk_i
*1361 clkbuf_2_3__f_clk_i
*1362 clkload0
*1363 clkload1
*1364 clkload2
*1365 fanout37
*1366 fanout38
*1367 fanout39
*1368 fanout40
*1369 fanout41
*1370 fanout42
*1371 fanout43
*1372 fanout44
*1373 input1
*1374 input10
*1375 input11
*1376 input12
*1377 input13
*1378 input14
*1379 input15
*1380 input16
*1381 input17
*1382 input18
*1383 input19
*1384 input2
*1385 input20
*1386 input21
*1387 input22
*1388 input23
*1389 input3
*1390 input4
*1391 input5
*1392 input6
*1393 input7
*1394 input8
*1395 input9
*1396 output24
*1397 output25
*1398 output26
*1399 output27
*1400 output28
*1401 output29
*1402 output30
*1403 output31
*1404 output32
*1405 output33
*1406 output34
*1407 output35
*1408 output36

*PORTS
busy_o O
cfg_bits_i[0] I
cfg_bits_i[1] I
cfg_div_i[0] I
cfg_div_i[10] I
cfg_div_i[11] I
cfg_div_i[12] I
cfg_div_i[13] I
cfg_div_i[14] I
cfg_div_i[15] I
cfg_div_i[1] I
cfg_div_i[2] I
cfg_div_i[3] I
cfg_div_i[4] I
cfg_div_i[5] I
cfg_div_i[6] I
cfg_div_i[7] I
cfg_div_i[8] I
cfg_div_i[9] I
cfg_en_i I
cfg_parity_en_i I
cfg_stop_bits_i I
char_event_o O
clk_i I
err_overflow_o O
err_parity_o O
rstn_i I
rx_data_o[0] O
rx_data_o[1] O
rx_data_o[2] O
rx_data_o[3] O
rx_data_o[4] O
rx_data_o[5] O
rx_data_o[6] O
rx_data_o[7] O
rx_i I
rx_ready_i I
rx_valid_o O

*D_NET *3 0.00118248
*CONN
*P busy_o O
*I *1396:Z O *D gf180mcu_fd_sc_mcu7t5v0__dlyb_1
*CAP
1 busy_o 0.000344998
2 *1396:Z 0.000344998
3 busy_o *1385:I 0.000492486
*RES
1 *1396:Z busy_o 12.2151 
*END

*D_NET *4 0.00114726
*CONN
*P cfg_bits_i[0] I
*I *1373:I I *D gf180mcu_fd_sc_mcu7t5v0__dlyb_1
*CAP
1 cfg_bits_i[0] 0.000168701
2 *1373:I 0.000168701
3 *1373:I rx_data_o[7] 0.000299364
4 *1373:I *1384:I 0.000510499
*RES
1 cfg_bits_i[0] *1373:I 12.0631 
*END

*D_NET *5 0.00138436
*CONN
*P cfg_bits_i[1] I
*I *1384:I I *D gf180mcu_fd_sc_mcu7t5v0__dlyb_1
*CAP
1 cfg_bits_i[1] 0.000407
2 *1384:I 0.000407
3 *1384:I rx_data_o[7] 2.88187e-05
4 *1384:I *1303:A2 3.10417e-05
5 *1373:I *1384:I 0.000510499
*RES
1 cfg_bits_i[1] *1384:I 12.9751 
*END

*D_NET *6 0.00111247
*CONN
*P cfg_div_i[0] I
*I *1389:I I *D gf180mcu_fd_sc_mcu7t5v0__dlyb_1
*CAP
1 cfg_div_i[0] 0.00030703
2 *1389:I 0.00030703
3 *1389:I *1374:I 0.000498412
4 *1389:I *247:8 0
*RES
1 cfg_div_i[0] *1389:I 12.002 
*END

*D_NET *7 0.00166729
*CONN
*P cfg_div_i[10] I
*I *1390:I I *D gf180mcu_fd_sc_mcu7t5v0__dlyb_1
*CAP
1 cfg_div_i[10] 0.000166842
2 *1390:I 0.000166842
3 *1390:I *1382:I 0.000822031
4 *1390:I *1392:I 0.000511573
*RES
1 cfg_div_i[10] *1390:I 12.61 
*END

*D_NET *8 0.000846178
*CONN
*P cfg_div_i[11] I
*I *1391:I I *D gf180mcu_fd_sc_mcu7t5v0__dlyb_1
*CAP
1 cfg_div_i[11] 0.000253815
2 *1391:I 0.000253815
3 *1391:I *1375:I 9.41995e-05
4 *1391:I *1395:I 0.000244349
5 *1391:I *248:14 0
*RES
1 cfg_div_i[11] *1391:I 11.698 
*END

*D_NET *9 0.00138407
*CONN
*P cfg_div_i[12] I
*I *1392:I I *D gf180mcu_fd_sc_mcu7t5v0__dlyb_1
*CAP
1 cfg_div_i[12] 0.000183913
2 *1392:I 0.000183913
3 *1392:I *1394:I 0.000504672
4 *1390:I *1392:I 0.000511573
*RES
1 cfg_div_i[12] *1392:I 12.306 
*END

*D_NET *10 0.00187355
*CONN
*P cfg_div_i[13] I
*I *1393:I I *D gf180mcu_fd_sc_mcu7t5v0__dlyb_1
*CAP
1 cfg_div_i[13] 0.000553316
2 *1393:I 0.000553316
3 *1393:I *1382:I 0.00052079
4 *1393:I *225:24 4.42433e-05
5 *1393:I *229:27 9.74225e-05
6 *1393:I *255:14 5.37083e-05
7 *1393:I *279:12 4.72461e-05
8 *1393:I *288:10 3.50929e-06
*RES
1 cfg_div_i[13] *1393:I 14.434 
*END

*D_NET *11 0.00120006
*CONN
*P cfg_div_i[14] I
*I *1394:I I *D gf180mcu_fd_sc_mcu7t5v0__dlyb_1
*CAP
1 cfg_div_i[14] 0.000347694
2 *1394:I 0.000347694
3 *1394:I *1375:I 0
4 *1394:I *288:10 0
5 *1392:I *1394:I 0.000504672
*RES
1 cfg_div_i[14] *1394:I 12.306 
*END

*D_NET *12 0.00127707
*CONN
*P cfg_div_i[15] I
*I *1395:I I *D gf180mcu_fd_sc_mcu7t5v0__dlyb_1
*CAP
1 cfg_div_i[15] 0.00018692
2 *1395:I 0.00018692
3 *1395:I *1379:I 0.000658878
4 *1395:I *248:14 0
5 *1391:I *1395:I 0.000244349
*RES
1 cfg_div_i[15] *1395:I 12.154 
*END

*D_NET *13 0.000871124
*CONN
*P cfg_div_i[1] I
*I *1374:I I *D gf180mcu_fd_sc_mcu7t5v0__dlyb_1
*CAP
1 cfg_div_i[1] 0.000186356
2 *1374:I 0.000186356
3 *1374:I *1377:I 0
4 *1389:I *1374:I 0.000498412
*RES
1 cfg_div_i[1] *1374:I 11.47 
*END

*D_NET *14 0.000688346
*CONN
*P cfg_div_i[2] I
*I *1375:I I *D gf180mcu_fd_sc_mcu7t5v0__dlyb_1
*CAP
1 cfg_div_i[2] 0.000297073
2 *1375:I 0.000297073
3 *1391:I *1375:I 9.41995e-05
4 *1394:I *1375:I 0
*RES
1 cfg_div_i[2] *1375:I 11.47 
*END

*D_NET *15 0.00189193
*CONN
*P cfg_div_i[3] I
*I *1376:I I *D gf180mcu_fd_sc_mcu7t5v0__dlyb_1
*CAP
1 cfg_div_i[3] 0.000945964
2 *1376:I 0.000945964
*RES
1 cfg_div_i[3] *1376:I 19.77 
*END

*D_NET *16 0.000948956
*CONN
*P cfg_div_i[4] I
*I *1377:I I *D gf180mcu_fd_sc_mcu7t5v0__dlyb_1
*CAP
1 cfg_div_i[4] 0.000218691
2 *1377:I 0.000218691
3 *1377:I *1378:I 0.000511573
4 *1377:I *248:14 0
5 *1374:I *1377:I 0
*RES
1 cfg_div_i[4] *1377:I 11.698 
*END

*D_NET *17 0.00103635
*CONN
*P cfg_div_i[5] I
*I *1378:I I *D gf180mcu_fd_sc_mcu7t5v0__dlyb_1
*CAP
1 cfg_div_i[5] 0.000262388
2 *1378:I 0.000262388
3 *1378:I *248:14 0
4 *1377:I *1378:I 0.000511573
*RES
1 cfg_div_i[5] *1378:I 11.85 
*END

*D_NET *18 0.00143018
*CONN
*P cfg_div_i[6] I
*I *1379:I I *D gf180mcu_fd_sc_mcu7t5v0__dlyb_1
*CAP
1 cfg_div_i[6] 0.00038565
2 *1379:I 0.00038565
3 *1379:I *248:14 0
4 *1395:I *1379:I 0.000658878
*RES
1 cfg_div_i[6] *1379:I 12.762 
*END

*D_NET *19 0.00105263
*CONN
*P cfg_div_i[7] I
*I *1380:I I *D gf180mcu_fd_sc_mcu7t5v0__dlyb_1
*CAP
1 cfg_div_i[7] 0.000526314
2 *1380:I 0.000526314
*RES
1 cfg_div_i[7] *1380:I 12.3671 
*END

*D_NET *20 0.00175209
*CONN
*P cfg_div_i[8] I
*I *1381:I I *D gf180mcu_fd_sc_mcu7t5v0__dlyb_1
*CAP
1 cfg_div_i[8] 0.000876046
2 *1381:I 0.000876046
*RES
1 cfg_div_i[8] *1381:I 10.9532 
*END

*D_NET *21 0.00189972
*CONN
*P cfg_div_i[9] I
*I *1382:I I *D gf180mcu_fd_sc_mcu7t5v0__dlyb_1
*CAP
1 cfg_div_i[9] 0.000278448
2 *1382:I 0.000278448
3 *1390:I *1382:I 0.000822031
4 *1393:I *1382:I 0.00052079
*RES
1 cfg_div_i[9] *1382:I 13.218 
*END

*D_NET *22 0.00111223
*CONN
*P cfg_en_i I
*I *1383:I I *D gf180mcu_fd_sc_mcu7t5v0__dlyb_1
*CAP
1 cfg_en_i 0.000556114
2 *1383:I 0.000556114
3 *1383:I *1372:I 0
*RES
1 cfg_en_i *1383:I 12.6711 
*END

*D_NET *23 0.0019764
*CONN
*P cfg_parity_en_i I
*I *1385:I I *D gf180mcu_fd_sc_mcu7t5v0__dlyb_1
*CAP
1 cfg_parity_en_i 0.000526811
2 *1385:I 0.000526811
3 *1385:I *1371:I 0
4 *1385:I *1396:I 0.000342528
5 *1385:I *283:41 2.23598e-06
6 *1385:I *284:10 8.55327e-05
7 busy_o *1385:I 0.000492486
*RES
1 cfg_parity_en_i *1385:I 14.1911 
*END

*D_NET *25 0.00202447
*CONN
*P char_event_o O
*I *1397:Z O *D gf180mcu_fd_sc_mcu7t5v0__dlyb_1
*CAP
1 char_event_o 0.000724941
2 *1397:Z 0.000724941
3 char_event_o err_overflow_o 0.000489067
4 char_event_o err_parity_o 0
5 char_event_o rx_valid_o 8.55242e-05
6 char_event_o *1388:I 0
*RES
1 *1397:Z char_event_o 14.4191 
*END

*D_NET *26 0.0112976
*CONN
*P clk_i I
*I *1357:I I *D gf180mcu_fd_sc_mcu7t5v0__clkbuf_16
*CAP
1 clk_i 0.00488762
2 *1357:I 0.000181282
3 *26:10 0.00506891
4 *1357:I *1366:I 3.50062e-05
5 *1357:I *276:84 0
6 *26:10 *1186:A1 0.00011955
7 *26:10 *1346:D 0.000111591
8 *26:10 *1346:CLK 0.000116537
9 *26:10 *1366:I 0.000777065
10 *26:10 *226:12 0
11 *26:10 *276:84 0
12 *26:10 *276:93 0
*RES
1 clk_i *26:10 38.662 
2 *26:10 *1357:I 5.564 
*END

*D_NET *27 0.0018559
*CONN
*P err_overflow_o O
*I *1398:Z O *D gf180mcu_fd_sc_mcu7t5v0__dlyb_1
*CAP
1 err_overflow_o 0.000284231
2 *1398:Z 0.000284231
3 err_overflow_o *1154:I 1.61066e-05
4 err_overflow_o *1216:A1 8.84331e-05
5 err_overflow_o *1388:I 0.000565464
6 err_overflow_o *291:8 0.000128363
7 char_event_o err_overflow_o 0.000489067
*RES
1 *1398:Z err_overflow_o 13.4311 
*END

*D_NET *28 0.00147844
*CONN
*P err_parity_o O
*I *1399:Z O *D gf180mcu_fd_sc_mcu7t5v0__dlyb_1
*CAP
1 err_parity_o 0.000417212
2 *1399:Z 0.000417212
3 err_parity_o rx_valid_o 0.000482942
4 err_parity_o *1388:I 9.66393e-05
5 err_parity_o *283:48 6.44359e-05
6 char_event_o err_parity_o 0
*RES
1 *1399:Z err_parity_o 13.2791 
*END

*D_NET *29 0.0017384
*CONN
*P rstn_i I
*I *1386:I I *D gf180mcu_fd_sc_mcu7t5v0__dlyb_1
*CAP
1 rstn_i 0.000869198
2 *1386:I 0.000869198
3 *1386:I *1372:I 0
4 *1386:I *256:10 0
*RES
1 rstn_i *1386:I 14.3431 
*END

*D_NET *30 0.00120188
*CONN
*P rx_data_o[0] O
*I *1400:Z O *D gf180mcu_fd_sc_mcu7t5v0__dlyb_1
*CAP
1 rx_data_o[0] 0.00058161
2 *1400:Z 0.00058161
3 rx_data_o[0] *1400:I 0
4 rx_data_o[0] *266:10 3.86561e-05
*RES
1 *1400:Z rx_data_o[0] 12.9751 
*END

*D_NET *31 0.00158918
*CONN
*P rx_data_o[1] O
*I *1401:Z O *D gf180mcu_fd_sc_mcu7t5v0__dlyb_1
*CAP
1 rx_data_o[1] 0.000788162
2 *1401:Z 0.000788162
3 rx_data_o[1] *1401:I 1.28529e-05
*RES
1 *1401:Z rx_data_o[1] 9.84307 
*END

*D_NET *32 0.00190131
*CONN
*P rx_data_o[2] O
*I *1402:Z O *D gf180mcu_fd_sc_mcu7t5v0__dlyb_1
*CAP
1 rx_data_o[2] 0.000950654
2 *1402:Z 0.000950654
*RES
1 *1402:Z rx_data_o[2] 10.7551 
*END

*D_NET *33 0.00235721
*CONN
*P rx_data_o[3] O
*I *1403:Z O *D gf180mcu_fd_sc_mcu7t5v0__dlyb_1
*CAP
1 rx_data_o[3] 0.0011187
2 *1403:Z 0.0011187
3 rx_data_o[3] rx_data_o[4] 4.9603e-05
4 rx_data_o[3] *1404:I 7.02034e-05
*RES
1 *1403:Z rx_data_o[3] 12.6252 
*END

*D_NET *34 0.00189116
*CONN
*P rx_data_o[4] O
*I *1404:Z O *D gf180mcu_fd_sc_mcu7t5v0__dlyb_1
*CAP
1 rx_data_o[4] 0.000871489
2 *1404:Z 0.000871489
3 rx_data_o[4] *1404:I 9.85832e-05
4 rx_data_o[3] rx_data_o[4] 4.9603e-05
*RES
1 *1404:Z rx_data_o[4] 19.7551 
*END

*D_NET *35 0.00126841
*CONN
*P rx_data_o[5] O
*I *1405:Z O *D gf180mcu_fd_sc_mcu7t5v0__dlyb_1
*CAP
1 rx_data_o[5] 0.000572145
2 *1405:Z 0.000572145
3 rx_data_o[5] rx_data_o[6] 9.56531e-05
4 rx_data_o[5] *1406:I 2.84711e-05
5 rx_data_o[5] *273:10 0
*RES
1 *1405:Z rx_data_o[5] 13.2791 
*END

*D_NET *36 0.000967987
*CONN
*P rx_data_o[6] O
*I *1406:Z O *D gf180mcu_fd_sc_mcu7t5v0__dlyb_1
*CAP
1 rx_data_o[6] 0.000436167
2 *1406:Z 0.000436167
3 rx_data_o[5] rx_data_o[6] 9.56531e-05
*RES
1 *1406:Z rx_data_o[6] 12.2151 
*END

*D_NET *37 0.0016264
*CONN
*P rx_data_o[7] O
*I *1407:Z O *D gf180mcu_fd_sc_mcu7t5v0__dlyb_1
*CAP
1 rx_data_o[7] 0.000459469
2 *1407:Z 0.000459469
3 rx_data_o[7] *1303:A2 0.000379283
4 rx_data_o[7] *246:8 0
5 rx_data_o[7] *274:10 0
6 *1373:I rx_data_o[7] 0.000299364
7 *1384:I rx_data_o[7] 2.88187e-05
*RES
1 *1407:Z rx_data_o[7] 13.5831 
*END

*D_NET *38 0.00195055
*CONN
*P rx_i I
*I *1387:I I *D gf180mcu_fd_sc_mcu7t5v0__dlyb_1
*CAP
1 rx_i 0.000975274
2 *1387:I 0.000975274
*RES
1 rx_i *1387:I 19.922 
*END

*D_NET *39 0.00180893
*CONN
*P rx_ready_i I
*I *1388:I I *D gf180mcu_fd_sc_mcu7t5v0__dlyb_1
*CAP
1 rx_ready_i 0.000238779
2 *1388:I 0.000238779
3 *1388:I rx_valid_o 0.0004901
4 *1388:I *1216:A1 0.000102094
5 *1388:I *283:48 6.71845e-05
6 *1388:I *291:8 9.88736e-06
7 char_event_o *1388:I 0
8 err_overflow_o *1388:I 0.000565464
9 err_parity_o *1388:I 9.66393e-05
*RES
1 rx_ready_i *1388:I 13.4311 
*END

*D_NET *40 0.00115916
*CONN
*P rx_valid_o O
*I *1408:Z O *D gf180mcu_fd_sc_mcu7t5v0__dlyb_1
*CAP
1 rx_valid_o 5.02949e-05
2 *1408:Z 5.02949e-05
3 char_event_o rx_valid_o 8.55242e-05
4 err_parity_o rx_valid_o 0.000482942
5 *1388:I rx_valid_o 0.0004901
*RES
1 *1408:Z rx_valid_o 11.6071 
*END

*D_NET *41 0.00777482
*CONN
*I *1167:A1 I *D gf180mcu_fd_sc_mcu7t5v0__nand2_1
*I *1287:A1 I *D gf180mcu_fd_sc_mcu7t5v0__oai211_1
*I *1159:A2 I *D gf180mcu_fd_sc_mcu7t5v0__nor2_1
*I *1318:A2 I *D gf180mcu_fd_sc_mcu7t5v0__nand4_1
*I *1276:A2 I *D gf180mcu_fd_sc_mcu7t5v0__nor3_1
*I *1322:Q O *D gf180mcu_fd_sc_mcu7t5v0__dffrnq_1
*CAP
1 *1167:A1 8.8621e-05
2 *1287:A1 0
3 *1159:A2 2.13634e-05
4 *1318:A2 0.000142529
5 *1276:A2 3.83065e-05
6 *1322:Q 0.000196262
7 *41:55 0.000354459
8 *41:16 0.000385914
9 *41:12 0.000469089
10 *41:8 0.000704747
11 *1159:A2 *1209:A1 7.24161e-06
12 *1159:A2 *194:19 0
13 *1159:A2 *197:16 5.98923e-05
14 *1167:A1 *1167:A2 7.24161e-06
15 *1167:A1 *1287:B 9.36268e-05
16 *1167:A1 *1369:I 9.50338e-05
17 *1167:A1 *1396:I 0.000181432
18 *1167:A1 *42:25 0.000258151
19 *1276:A2 *43:22 3.08902e-05
20 *1276:A2 *43:29 0.000134622
21 *1276:A2 *83:15 2.14729e-05
22 *1318:A2 *1276:A1 0.000102192
23 *1318:A2 *1318:A1 4.02097e-05
24 *1318:A2 *42:42 0.000142065
25 *1318:A2 *83:15 0.000187314
26 *1318:A2 *83:26 1.5015e-05
27 *1318:A2 *240:66 9.88736e-06
28 *41:8 *1284:A2 0.000199473
29 *41:8 *1369:I 9.33169e-06
30 *41:8 *110:10 0.000578336
31 *41:12 *1280:A2 0
32 *41:12 *194:19 0
33 *41:12 *197:16 0.000968671
34 *41:16 *1209:A1 0.000498355
35 *41:16 *42:42 3.67296e-05
36 *41:16 *42:44 9.57246e-05
37 *41:16 *194:10 2.10727e-05
38 *41:55 *1369:I 9.50423e-05
39 *41:55 *1396:I 0.000213194
40 *41:55 *43:14 8.81262e-05
41 *41:55 *43:22 0.000199556
42 *41:55 *110:10 0.000800668
43 *41:55 *194:10 0
44 *41:55 *262:14 0.000182967
*RES
1 *1322:Q *41:8 11.052 
2 *41:8 *41:12 7.008 
3 *41:12 *41:16 6.552 
4 *41:16 *1276:A2 9.38 
5 *41:16 *1318:A2 10.596 
6 *41:12 *1159:A2 4.728 
7 *41:8 *41:55 12.724 
8 *41:55 *1287:A1 9 
9 *41:55 *1167:A1 10.52 
*END

*D_NET *42 0.0150887
*CONN
*I *1268:A1 I *D gf180mcu_fd_sc_mcu7t5v0__nand2_1
*I *1159:A1 I *D gf180mcu_fd_sc_mcu7t5v0__nor2_1
*I *1284:A1 I *D gf180mcu_fd_sc_mcu7t5v0__oai21_1
*I *1285:I0 I *D gf180mcu_fd_sc_mcu7t5v0__mux2_2
*I *1168:A1 I *D gf180mcu_fd_sc_mcu7t5v0__oai21_1
*I *1138:I I *D gf180mcu_fd_sc_mcu7t5v0__clkinv_1
*I *1287:C I *D gf180mcu_fd_sc_mcu7t5v0__oai211_1
*I *1323:Q O *D gf180mcu_fd_sc_mcu7t5v0__dffrnq_1
*CAP
1 *1268:A1 0.000427182
2 *1159:A1 1.70823e-05
3 *1284:A1 0
4 *1285:I0 0.000381688
5 *1168:A1 0.000467555
6 *1138:I 2.38069e-05
7 *1287:C 0
8 *1323:Q 0.000632999
9 *42:61 0.00074096
10 *42:44 0.00115592
11 *42:42 0.00059969
12 *42:38 0.000782649
13 *42:25 0.000490116
14 *42:14 0.000997355
15 *1138:I *1318:A1 0.000118796
16 *1138:I *83:15 1.76797e-05
17 *1159:A1 *1209:A1 8.55327e-05
18 *1159:A1 *197:16 1.52768e-05
19 *1168:A1 *110:34 8.43367e-05
20 *1168:A1 *283:56 0.000531137
21 *1168:A1 *283:64 2.05156e-05
22 *1268:A1 *1166:A3 0.000161773
23 *1268:A1 *1166:A4 0.000369763
24 *1268:A1 *1269:A3 9.26705e-05
25 *1268:A1 *1270:B 7.98438e-05
26 *1268:A1 *1318:A1 1.97747e-05
27 *1268:A1 *240:58 4.50449e-05
28 *1268:A1 *240:66 0.000253438
29 *1268:A1 *244:78 0.000694477
30 *1285:I0 *1281:A1 1.91917e-06
31 *1285:I0 *1283:A2 0.000410532
32 *1285:I0 *1284:A2 1.5015e-05
33 *1285:I0 *1284:B 0.000197178
34 *1285:I0 *1285:S 0.000123777
35 *1285:I0 *1369:I 3.71997e-05
36 *1285:I0 *197:24 2.22758e-05
37 *1285:I0 *197:39 9.42485e-06
38 *42:14 *1289:A2 7.83779e-05
39 *42:14 *1289:B 9.80287e-05
40 *42:14 *1323:RN 0
41 *42:14 *43:14 0.000397738
42 *42:14 *197:39 9.77378e-05
43 *42:14 *244:80 9.61205e-06
44 *42:14 *258:8 0.000453575
45 *42:25 *1167:A2 2.74661e-05
46 *42:25 *1287:B 1.64136e-05
47 *42:25 *43:14 3.84145e-06
48 *42:25 *83:15 0.000157223
49 *42:25 *110:10 8.55327e-05
50 *42:25 *244:78 0.000200673
51 *42:25 *244:80 7.26269e-05
52 *42:38 *1318:A1 0.000118276
53 *42:38 *244:78 0.000111858
54 *42:42 *1209:A1 0.000507951
55 *42:42 *1212:A1 8.86165e-05
56 *42:42 *1212:A2 0.000174571
57 *42:42 *1276:A1 1.04712e-05
58 *42:42 *1318:A4 0.000331093
59 *42:61 *1282:B 2.74661e-05
60 *42:61 *1284:A2 0.000148177
61 *42:61 *1322:RN 0
62 *42:61 *110:25 0.000910626
63 *42:61 *110:34 0.000224824
64 *42:61 *197:24 7.88515e-05
65 *42:61 *283:64 0
66 *1167:A1 *42:25 0.000258151
67 *1318:A2 *42:42 0.000142065
68 *41:16 *42:42 3.67296e-05
69 *41:16 *42:44 9.57246e-05
*RES
1 *1323:Q *42:14 18.744 
2 *42:14 *1287:C 4.5 
3 *42:14 *42:25 3.876 
4 *42:25 *1138:I 4.956 
5 *42:25 *42:38 1.064 
6 *42:38 *42:42 7.616 
7 *42:42 *42:44 2.052 
8 *42:44 *1168:A1 13.18 
9 *42:44 *42:61 8.376 
10 *42:61 *1285:I0 16.768 
11 *42:61 *1284:A1 4.5 
12 *42:42 *1159:A1 9.228 
13 *42:38 *1268:A1 9.82 
*END

*D_NET *43 0.0103741
*CONN
*I *1288:A1 I *D gf180mcu_fd_sc_mcu7t5v0__oai21_1
*I *1139:I I *D gf180mcu_fd_sc_mcu7t5v0__clkinv_1
*I *1212:A1 I *D gf180mcu_fd_sc_mcu7t5v0__nand3_1
*I *1209:A1 I *D gf180mcu_fd_sc_mcu7t5v0__xor2_1
*I *1276:A3 I *D gf180mcu_fd_sc_mcu7t5v0__nor3_1
*I *1324:Q O *D gf180mcu_fd_sc_mcu7t5v0__dffrnq_1
*CAP
1 *1288:A1 8.91945e-05
2 *1139:I 1.98492e-06
3 *1212:A1 0.000285701
4 *1209:A1 0.000241096
5 *1276:A3 0
6 *1324:Q 0.000864752
7 *43:29 0.000563044
8 *43:22 0.000307516
9 *43:14 0.000724217
10 *43:8 0.00140491
11 *1139:I *1287:B 4.50449e-05
12 *1209:A1 *1209:A2 0.000201937
13 *1209:A1 *194:19 0.000200101
14 *1209:A1 *197:16 3.26601e-05
15 *1212:A1 *1212:A2 0.000496534
16 *1212:A1 *1318:A4 0.000324233
17 *1212:A1 *1319:A3 0.000267578
18 *1212:A1 *83:15 2.11302e-05
19 *1212:A1 *154:10 6.04444e-06
20 *1212:A1 *262:14 0.000173439
21 *1288:A1 *1288:A2 0.000305671
22 *1288:A1 *1323:CLK 1.46595e-05
23 *43:8 *1324:D 0.000281603
24 *43:8 *283:10 0.000192484
25 *43:8 *283:34 6.59663e-05
26 *43:14 *1280:A1 0
27 *43:14 *1287:B 0.000122916
28 *43:14 *1288:A2 2.05156e-05
29 *43:14 *1289:A2 6.08447e-06
30 *43:14 *1289:B 0.000145392
31 *43:14 *197:39 0.000138621
32 *43:14 *283:10 2.50491e-05
33 *43:22 *1287:A2 2.57058e-06
34 *43:22 *1287:B 2.96977e-05
35 *43:22 *83:15 0.000229486
36 *43:22 *262:14 0.000342229
37 *43:29 *83:15 3.28428e-06
38 *43:29 *262:14 0.00015424
39 *1159:A1 *1209:A1 8.55327e-05
40 *1159:A2 *1209:A1 7.24161e-06
41 *1276:A2 *43:22 3.08902e-05
42 *1276:A2 *43:29 0.000134622
43 *41:16 *1209:A1 0.000498355
44 *41:55 *43:14 8.81262e-05
45 *41:55 *43:22 0.000199556
46 *42:14 *43:14 0.000397738
47 *42:25 *43:14 3.84145e-06
48 *42:42 *1209:A1 0.000507951
49 *42:42 *1212:A1 8.86165e-05
*RES
1 *1324:Q *43:8 15.004 
2 *43:8 *43:14 8.604 
3 *43:14 *43:22 3.344 
4 *43:22 *1276:A3 4.5 
5 *43:22 *43:29 0.532 
6 *43:29 *1209:A1 17.3 
7 *43:29 *1212:A1 16.844 
8 *43:14 *1139:I 4.728 
9 *43:8 *1288:A1 9.836 
*END

*D_NET *44 0.000510616
*CONN
*I *1337:D I *D gf180mcu_fd_sc_mcu7t5v0__dffrnq_1
*I *1218:ZN O *D gf180mcu_fd_sc_mcu7t5v0__nor2_1
*CAP
1 *1337:D 0.000203552
2 *1218:ZN 0.000203552
3 *1337:D *1220:A1 1.02578e-05
4 *1337:D *1338:CLK 8.74908e-05
5 *1337:D *242:65 5.76373e-06
*RES
1 *1218:ZN *1337:D 10.52 
*END

*D_NET *45 0.00168661
*CONN
*I *1347:D I *D gf180mcu_fd_sc_mcu7t5v0__dffrnq_1
*I *1248:ZN O *D gf180mcu_fd_sc_mcu7t5v0__nor3_1
*CAP
1 *1347:D 0.000400451
2 *1248:ZN 0.000400451
3 *1347:D *1241:A1 0.000618644
4 *1347:D *1248:A1 0.000104569
5 *1347:D *1345:CLK 2.05953e-05
6 *1347:D *1348:RN 0
7 *1347:D *254:12 0.000141897
8 *1347:D *281:113 0
*RES
1 *1248:ZN *1347:D 22.408 
*END

*D_NET *46 0.00083525
*CONN
*I *1348:D I *D gf180mcu_fd_sc_mcu7t5v0__dffrnq_1
*I *1252:ZN O *D gf180mcu_fd_sc_mcu7t5v0__nor3_1
*CAP
1 *1348:D 0.000346507
2 *1252:ZN 0.000346507
3 *1348:D *1348:CLK 3.08777e-05
4 *1348:D *227:6 1.30476e-05
5 *1348:D *277:8 9.83109e-05
*RES
1 *1252:ZN *1348:D 11.432 
*END

*D_NET *47 0.000625016
*CONN
*I *1349:D I *D gf180mcu_fd_sc_mcu7t5v0__dffrnq_1
*I *1254:ZN O *D gf180mcu_fd_sc_mcu7t5v0__nor2_1
*CAP
1 *1349:D 0.000143126
2 *1254:ZN 0.000143126
3 *1349:D *1254:A1 0.000317503
4 *1349:D *1254:A2 2.05156e-05
5 *1349:D *243:112 7.45328e-07
*RES
1 *1254:ZN *1349:D 10.292 
*END

*D_NET *48 0.00075084
*CONN
*I *1350:D I *D gf180mcu_fd_sc_mcu7t5v0__dffrnq_1
*I *1258:ZN O *D gf180mcu_fd_sc_mcu7t5v0__nor3_1
*CAP
1 *1350:D 0.00030412
2 *1258:ZN 0.00030412
3 *1350:D *1253:A1 0
4 *1350:D *1258:A2 4.63008e-05
5 *1350:D *227:25 0
6 *1350:D *227:47 0
7 *1350:D *243:112 9.62991e-05
*RES
1 *1258:ZN *1350:D 10.9 
*END

*D_NET *49 0.000407811
*CONN
*I *1351:D I *D gf180mcu_fd_sc_mcu7t5v0__dffrnq_1
*I *1261:ZN O *D gf180mcu_fd_sc_mcu7t5v0__nor3_1
*CAP
1 *1351:D 0.000168067
2 *1261:ZN 0.000168067
3 *1351:D *1261:A3 6.44359e-05
4 *1351:D *1351:CLK 7.24161e-06
*RES
1 *1261:ZN *1351:D 10.216 
*END

*D_NET *50 0.000339978
*CONN
*I *1352:D I *D gf180mcu_fd_sc_mcu7t5v0__dffrnq_1
*I *1263:ZN O *D gf180mcu_fd_sc_mcu7t5v0__aoi211_1
*CAP
1 *1352:D 6.87449e-05
2 *1263:ZN 6.87449e-05
3 *1352:D *1352:CLK 5.29084e-05
4 *1352:D *230:12 0.000149579
*RES
1 *1263:ZN *1352:D 9.836 
*END

*D_NET *51 0.000678071
*CONN
*I *1338:D I *D gf180mcu_fd_sc_mcu7t5v0__dffrnq_1
*I *1220:ZN O *D gf180mcu_fd_sc_mcu7t5v0__nor2_1
*CAP
1 *1338:D 0.000176715
2 *1220:ZN 0.000176715
3 *1338:D *1164:A2 0
4 *1338:D *1220:A1 0.00032464
5 *1338:D *1338:CLK 0
*RES
1 *1220:ZN *1338:D 10.52 
*END

*D_NET *52 0.00134284
*CONN
*I *1339:D I *D gf180mcu_fd_sc_mcu7t5v0__dffrnq_1
*I *1223:ZN O *D gf180mcu_fd_sc_mcu7t5v0__nor3_1
*CAP
1 *1339:D 0.000671419
2 *1223:ZN 0.000671419
3 *1339:D *224:12 0
*RES
1 *1223:ZN *1339:D 12.724 
*END

*D_NET *53 0.000978615
*CONN
*I *1340:D I *D gf180mcu_fd_sc_mcu7t5v0__dffrnq_1
*I *1226:ZN O *D gf180mcu_fd_sc_mcu7t5v0__nor3_1
*CAP
1 *1340:D 0.000233052
2 *1226:ZN 0.000233052
3 *1340:D *1341:CLK 4.33001e-05
4 *1340:D *232:10 0.000339421
5 *1340:D *281:52 0.000129791
*RES
1 *1226:ZN *1340:D 11.28 
*END

*D_NET *54 0.000487022
*CONN
*I *1341:D I *D gf180mcu_fd_sc_mcu7t5v0__dffrnq_1
*I *1228:ZN O *D gf180mcu_fd_sc_mcu7t5v0__nor2_1
*CAP
1 *1341:D 8.55651e-05
2 *1228:ZN 8.55651e-05
3 *1341:D *1228:A1 0.000315892
*RES
1 *1228:ZN *1341:D 9.836 
*END

*D_NET *55 0.00151188
*CONN
*I *1342:D I *D gf180mcu_fd_sc_mcu7t5v0__dffrnq_1
*I *1232:ZN O *D gf180mcu_fd_sc_mcu7t5v0__nor3_1
*CAP
1 *1342:D 0.000469005
2 *1232:ZN 0.000469005
3 *1342:D *1172:A2 0
4 *1342:D *233:6 0
5 *1342:D *281:16 0.000573871
*RES
1 *1232:ZN *1342:D 21.8 
*END

*D_NET *56 0.000489614
*CONN
*I *1343:D I *D gf180mcu_fd_sc_mcu7t5v0__dffrnq_1
*I *1235:ZN O *D gf180mcu_fd_sc_mcu7t5v0__nor2_1
*CAP
1 *1343:D 4.86123e-05
2 *1235:ZN 4.86123e-05
3 *1343:D *1235:A2 0.00032464
4 *1343:D *1343:CLK 6.77492e-05
*RES
1 *1235:ZN *1343:D 9.836 
*END

*D_NET *57 0.00170702
*CONN
*I *1344:D I *D gf180mcu_fd_sc_mcu7t5v0__dffrnq_1
*I *1238:Z O *D gf180mcu_fd_sc_mcu7t5v0__and4_1
*CAP
1 *1344:D 0.000310239
2 *1238:Z 0.000310239
3 *1344:D *1342:CLK 5.76373e-06
4 *1344:D *1365:I 0.00045346
5 *1344:D *237:14 0.000116713
6 *1344:D *242:26 0.000493366
7 *1344:D *281:102 1.72372e-05
*RES
1 *1238:Z *1344:D 21.116 
*END

*D_NET *58 0.000916343
*CONN
*I *1345:D I *D gf180mcu_fd_sc_mcu7t5v0__dffrnq_1
*I *1241:ZN O *D gf180mcu_fd_sc_mcu7t5v0__nor2_1
*CAP
1 *1345:D 0.000170679
2 *1241:ZN 0.000170679
3 *1345:D *1241:A2 0.000255722
4 *1345:D *1345:CLK 0.000124462
5 *1345:D *238:12 0.000134206
6 *1345:D *254:12 6.05951e-05
*RES
1 *1241:ZN *1345:D 10.9 
*END

*D_NET *59 0.00072236
*CONN
*I *1346:D I *D gf180mcu_fd_sc_mcu7t5v0__dffrnq_1
*I *1244:ZN O *D gf180mcu_fd_sc_mcu7t5v0__nor3_1
*CAP
1 *1346:D 0.000248859
2 *1244:ZN 0.000248859
3 *1346:D *1346:CLK 1.02578e-05
4 *1346:D *276:84 0.000102794
5 *26:10 *1346:D 0.000111591
*RES
1 *1244:ZN *1346:D 10.748 
*END

*D_NET *60 0.000357857
*CONN
*I *1353:D I *D gf180mcu_fd_sc_mcu7t5v0__dffrnq_1
*I *1211:ZN O *D gf180mcu_fd_sc_mcu7t5v0__aoi21_1
*CAP
1 *1353:D 0.000120751
2 *1211:ZN 0.000120751
3 *1353:D *244:35 0.000116355
*RES
1 *1211:ZN *1353:D 9.988 
*END

*D_NET *61 0.000782265
*CONN
*I *1354:D I *D gf180mcu_fd_sc_mcu7t5v0__dffsnq_1
*I *1264:Z O *D gf180mcu_fd_sc_mcu7t5v0__or2_1
*CAP
1 *1354:D 0.000368745
2 *1264:Z 0.000368745
3 *1354:D *1264:A1 4.47747e-05
*RES
1 *1264:Z *1354:D 11.28 
*END

*D_NET *62 0.00221409
*CONN
*I *1355:D I *D gf180mcu_fd_sc_mcu7t5v0__dffsnq_1
*I *1265:Z O *D gf180mcu_fd_sc_mcu7t5v0__or2_1
*CAP
1 *1355:D 0.000882393
2 *1265:Z 0.000882393
3 *1355:D *1283:A1 5.29084e-05
4 *1355:D *1322:D 0.000123108
5 *1355:D *1322:CLK 9.03872e-05
6 *1355:D *1369:I 4.02667e-05
7 *1355:D *237:10 0.000141888
8 *1355:D *244:35 7.45328e-07
*RES
1 *1265:Z *1355:D 15.156 
*END

*D_NET *63 0.000667716
*CONN
*I *1356:D I *D gf180mcu_fd_sc_mcu7t5v0__dffsnq_1
*I *1266:ZN O *D gf180mcu_fd_sc_mcu7t5v0__nand2_1
*CAP
1 *1356:D 1.63554e-05
2 *1266:ZN 1.63554e-05
3 *1356:D *1269:A2 0.000317503
4 *1356:D *1319:A3 0.000317503
*RES
1 *1266:ZN *1356:D 9.836 
*END

*D_NET *64 0.00348339
*CONN
*I *1314:B I *D gf180mcu_fd_sc_mcu7t5v0__aoi21_1
*I *1273:A2 I *D gf180mcu_fd_sc_mcu7t5v0__xnor2_1
*I *1312:A2 I *D gf180mcu_fd_sc_mcu7t5v0__nand2_1
*I *1316:A2 I *D gf180mcu_fd_sc_mcu7t5v0__nand4_1
*I *1334:Q O *D gf180mcu_fd_sc_mcu7t5v0__dffrnq_1
*CAP
1 *1314:B 0
2 *1273:A2 8.20039e-05
3 *1312:A2 0
4 *1316:A2 9.29383e-05
5 *1334:Q 6.03428e-05
6 *64:23 0.000255636
7 *64:12 0.000431883
8 *64:6 0.000225656
9 *1273:A2 *1274:A2 0.000317618
10 *1273:A2 *193:10 1.31444e-05
11 *1273:A2 *292:41 9.52854e-05
12 *1316:A2 *1314:A1 2.96621e-05
13 *1316:A2 *1314:A2 2.6126e-05
14 *1316:A2 *1316:A1 0.000111867
15 *1316:A2 *1316:A4 4.77185e-05
16 *64:6 *1314:A1 1.02578e-05
17 *64:6 *1316:A1 6.50663e-05
18 *64:6 *241:77 6.50663e-05
19 *64:12 *1314:A1 2.22758e-05
20 *64:12 *241:77 3.07734e-05
21 *64:12 *282:31 1.45899e-05
22 *64:12 *292:25 0.000145096
23 *64:23 *1314:A2 0.000272143
24 *64:23 *292:25 0.000498804
25 *64:23 *292:41 0.000569434
*RES
1 *1334:Q *64:6 5.184 
2 *64:6 *64:12 5.564 
3 *64:12 *1316:A2 9.836 
4 *64:12 *64:23 2.66 
5 *64:23 *1312:A2 9 
6 *64:23 *1273:A2 10.14 
7 *64:6 *1314:B 4.5 
*END

*D_NET *65 0.001703
*CONN
*I *1275:A1 I *D gf180mcu_fd_sc_mcu7t5v0__nand3_1
*I *1156:I I *D gf180mcu_fd_sc_mcu7t5v0__clkinv_1
*I *1335:Q O *D gf180mcu_fd_sc_mcu7t5v0__dffrnq_1
*CAP
1 *1275:A1 4.1329e-05
2 *1156:I 0.000120279
3 *1335:Q 0.000510995
4 *65:12 0.000672603
5 *1275:A1 *193:10 5.1289e-05
6 *1275:A1 *282:59 0
7 *65:12 *1313:A2 0
8 *65:12 *193:10 1.02578e-05
9 *65:12 *219:8 0
10 *65:12 *282:59 0.000296246
*RES
1 *1335:Q *65:12 17.148 
2 *65:12 *1156:I 5.336 
3 *65:12 *1275:A1 4.88 
*END

*D_NET *66 0.000714539
*CONN
*I *1321:D I *D gf180mcu_fd_sc_mcu7t5v0__dffrnq_1
*I *1271:ZN O *D gf180mcu_fd_sc_mcu7t5v0__clkinv_1
*CAP
1 *1321:D 0.000284711
2 *1271:ZN 0.000284711
3 *1321:D *1266:A2 2.05953e-05
4 *1321:D *1369:I 0.000124522
5 *1321:D *284:31 0
*RES
1 *1271:ZN *1321:D 19.976 
*END

*D_NET *67 0.000679252
*CONN
*I *1322:D I *D gf180mcu_fd_sc_mcu7t5v0__dffrnq_1
*I *1283:ZN O *D gf180mcu_fd_sc_mcu7t5v0__nor2_1
*CAP
1 *1322:D 0.000262627
2 *1283:ZN 0.000262627
3 *1322:D *1322:CLK 3.08902e-05
4 *1355:D *1322:D 0.000123108
*RES
1 *1283:ZN *1322:D 10.9 
*END

*D_NET *68 0.000330781
*CONN
*I *1323:D I *D gf180mcu_fd_sc_mcu7t5v0__dffrnq_1
*I *1286:Z O *D gf180mcu_fd_sc_mcu7t5v0__and2_1
*CAP
1 *1323:D 0.00016539
2 *1286:Z 0.00016539
*RES
1 *1286:Z *1323:D 9.836 
*END

*D_NET *69 0.000640526
*CONN
*I *1324:D I *D gf180mcu_fd_sc_mcu7t5v0__dffrnq_1
*I *1289:ZN O *D gf180mcu_fd_sc_mcu7t5v0__aoi21_1
*CAP
1 *1324:D 0.000179462
2 *1289:ZN 0.000179462
3 *43:8 *1324:D 0.000281603
*RES
1 *1289:ZN *1324:D 19.596 
*END

*D_NET *70 0.00118986
*CONN
*I *1325:D I *D gf180mcu_fd_sc_mcu7t5v0__dffsnq_1
*I *1291:Z O *D gf180mcu_fd_sc_mcu7t5v0__mux2_2
*CAP
1 *1325:D 0.00031683
2 *1291:Z 0.00031683
3 *1325:D *1325:SETN 0.000485254
4 *1325:D *266:10 7.09482e-05
*RES
1 *1291:Z *1325:D 21.192 
*END

*D_NET *71 0.000533983
*CONN
*I *1326:D I *D gf180mcu_fd_sc_mcu7t5v0__dffsnq_1
*I *1292:Z O *D gf180mcu_fd_sc_mcu7t5v0__mux2_2
*CAP
1 *1326:D 5.15154e-05
2 *1292:Z 5.15154e-05
3 *1326:D *245:28 0.000317494
4 *1326:D *245:39 2.6126e-05
5 *1326:D *269:8 8.7332e-05
*RES
1 *1292:Z *1326:D 9.836 
*END

*D_NET *72 0.00117512
*CONN
*I *1327:D I *D gf180mcu_fd_sc_mcu7t5v0__dffsnq_1
*I *1293:Z O *D gf180mcu_fd_sc_mcu7t5v0__mux2_2
*CAP
1 *1327:D 7.80299e-05
2 *1293:Z 7.80299e-05
3 *1327:D *270:21 1.97747e-05
4 *1327:D *271:19 0.000326257
5 *1327:D *282:81 0.000673025
*RES
1 *1293:Z *1327:D 10.9 
*END

*D_NET *73 0.00135849
*CONN
*I *1328:D I *D gf180mcu_fd_sc_mcu7t5v0__dffsnq_1
*I *1294:Z O *D gf180mcu_fd_sc_mcu7t5v0__mux2_2
*CAP
1 *1328:D 0.000649909
2 *1294:Z 0.000649909
3 *1328:D *1328:SETN 5.86759e-05
4 *1328:D *245:47 0
5 *1328:D *271:19 0
*RES
1 *1294:Z *1328:D 22.256 
*END

*D_NET *74 0.000878127
*CONN
*I *1329:D I *D gf180mcu_fd_sc_mcu7t5v0__dffsnq_1
*I *1297:Z O *D gf180mcu_fd_sc_mcu7t5v0__mux2_2
*CAP
1 *1329:D 0.000439064
2 *1297:Z 0.000439064
3 *1329:D *284:67 0
*RES
1 *1297:Z *1329:D 20.888 
*END

*D_NET *75 0.00163123
*CONN
*I *1330:D I *D gf180mcu_fd_sc_mcu7t5v0__dffsnq_1
*I *1302:ZN O *D gf180mcu_fd_sc_mcu7t5v0__oai21_1
*CAP
1 *1330:D 0.000165201
2 *1302:ZN 0.000165201
3 *1330:D *1302:A1 0.000379283
4 *1330:D *1302:A2 0
5 *1330:D *278:91 0.000921547
*RES
1 *1302:ZN *1330:D 11.584 
*END

*D_NET *76 0.000761581
*CONN
*I *1331:D I *D gf180mcu_fd_sc_mcu7t5v0__dffsnq_1
*I *1306:ZN O *D gf180mcu_fd_sc_mcu7t5v0__oai21_1
*CAP
1 *1331:D 0.000261083
2 *1306:ZN 0.000261083
3 *1331:D *1300:A2 0.000239414
4 *1331:D *1300:B 0
5 *1331:D *280:34 0
6 *1331:D *284:67 0
*RES
1 *1306:ZN *1331:D 20.128 
*END

*D_NET *77 0.000834378
*CONN
*I *1332:D I *D gf180mcu_fd_sc_mcu7t5v0__dffsnq_1
*I *1309:ZN O *D gf180mcu_fd_sc_mcu7t5v0__oai21_1
*CAP
1 *1332:D 0.000271253
2 *1309:ZN 0.000271253
3 *1332:D *1309:A2 9.79533e-05
4 *1332:D *278:31 1.91917e-06
5 *1332:D *278:70 0.000192001
*RES
1 *1309:ZN *1332:D 11.432 
*END

*D_NET *78 0.00107541
*CONN
*I *1333:D I *D gf180mcu_fd_sc_mcu7t5v0__dffrnq_1
*I *1311:Z O *D gf180mcu_fd_sc_mcu7t5v0__mux2_2
*CAP
1 *1333:D 0.00042539
2 *1311:Z 0.00042539
3 *1333:D *1335:CLK 8.73421e-05
4 *1333:D *1353:CLK 6.77492e-05
5 *1333:D *243:26 7.24161e-06
6 *1333:D *253:12 6.22927e-05
*RES
1 *1311:Z *1333:D 21.04 
*END

*D_NET *79 0.0020543
*CONN
*I *1334:D I *D gf180mcu_fd_sc_mcu7t5v0__dffrnq_1
*I *1315:ZN O *D gf180mcu_fd_sc_mcu7t5v0__nor2_1
*CAP
1 *1334:D 0.000501153
2 *1315:ZN 0.000501153
3 *1334:D *1345:RN 0
4 *1334:D *243:26 0.000780332
5 *1334:D *281:102 0.000271661
6 *1334:D *282:31 0
*RES
1 *1315:ZN *1334:D 22.56 
*END

*D_NET *80 0.000531824
*CONN
*I *1335:D I *D gf180mcu_fd_sc_mcu7t5v0__dffrnq_1
*I *1317:ZN O *D gf180mcu_fd_sc_mcu7t5v0__oai21_1
*CAP
1 *1335:D 0.000265912
2 *1317:ZN 0.000265912
3 *1335:D *1335:CLK 0
*RES
1 *1317:ZN *1335:D 10.672 
*END

*D_NET *81 0.000679819
*CONN
*I *1336:D I *D gf180mcu_fd_sc_mcu7t5v0__dffrnq_1
*I *1320:ZN O *D gf180mcu_fd_sc_mcu7t5v0__oai21_1
*CAP
1 *1336:D 0.000160992
2 *1320:ZN 0.000160992
3 *1336:D *1320:A2 0.000308746
4 *1336:D *1320:B 4.90885e-05
*RES
1 *1320:ZN *1336:D 10.368 
*END

*D_NET *82 0.00093742
*CONN
*I *1318:A1 I *D gf180mcu_fd_sc_mcu7t5v0__nand4_1
*I *1276:A1 I *D gf180mcu_fd_sc_mcu7t5v0__nor3_1
*I *1138:ZN O *D gf180mcu_fd_sc_mcu7t5v0__clkinv_1
*CAP
1 *1318:A1 0.000156273
2 *1276:A1 7.73422e-05
3 *1138:ZN 0
4 *82:4 0.000233615
5 *1318:A1 *83:15 3.43454e-05
6 *1318:A1 *240:66 2.6126e-05
7 *1138:I *1318:A1 0.000118796
8 *1268:A1 *1318:A1 1.97747e-05
9 *1318:A2 *1276:A1 0.000102192
10 *1318:A2 *1318:A1 4.02097e-05
11 *42:38 *1318:A1 0.000118276
12 *42:42 *1276:A1 1.04712e-05
*RES
1 *1138:ZN *82:4 4.5 
2 *82:4 *1276:A1 14.184 
3 *82:4 *1318:A1 5.792 
*END

*D_NET *83 0.00381581
*CONN
*I *1167:A2 I *D gf180mcu_fd_sc_mcu7t5v0__nand2_1
*I *1160:A1 I *D gf180mcu_fd_sc_mcu7t5v0__nand2_1
*I *1166:A1 I *D gf180mcu_fd_sc_mcu7t5v0__nand4_1
*I *1318:A3 I *D gf180mcu_fd_sc_mcu7t5v0__nand4_1
*I *1287:B I *D gf180mcu_fd_sc_mcu7t5v0__oai211_1
*I *1139:ZN O *D gf180mcu_fd_sc_mcu7t5v0__clkinv_1
*CAP
1 *1167:A2 6.20788e-05
2 *1160:A1 0
3 *1166:A1 0.000118534
4 *1318:A3 0
5 *1287:B 0.000111774
6 *1139:ZN 3.28034e-05
7 *83:26 0.000303494
8 *83:15 0.000513344
9 *83:6 0.00053504
10 *1166:A1 *1278:A1 3.36987e-05
11 *1166:A1 *240:66 5.50729e-05
12 *1167:A2 *110:10 8.55327e-05
13 *83:15 *240:66 1.6604e-05
14 *83:15 *262:14 5.14116e-06
15 *83:26 *1278:A1 0
16 *83:26 *240:66 0.000394018
17 *83:26 *262:8 0.000519319
18 *83:26 *262:14 0
19 *1138:I *83:15 1.76797e-05
20 *1139:I *1287:B 4.50449e-05
21 *1167:A1 *1167:A2 7.24161e-06
22 *1167:A1 *1287:B 9.36268e-05
23 *1212:A1 *83:15 2.11302e-05
24 *1276:A2 *83:15 2.14729e-05
25 *1318:A1 *83:15 3.43454e-05
26 *1318:A2 *83:15 0.000187314
27 *1318:A2 *83:26 1.5015e-05
28 *42:25 *1167:A2 2.74661e-05
29 *42:25 *1287:B 1.64136e-05
30 *42:25 *83:15 0.000157223
31 *43:14 *1287:B 0.000122916
32 *43:22 *1287:B 2.96977e-05
33 *43:22 *83:15 0.000229486
34 *43:29 *83:15 3.28428e-06
*RES
1 *1139:ZN *83:6 4.728 
2 *83:6 *1287:B 5.792 
3 *83:6 *83:15 3.268 
4 *83:15 *1318:A3 4.5 
5 *83:15 *83:26 2.66 
6 *83:26 *1166:A1 5.412 
7 *83:26 *1160:A1 4.5 
8 *83:6 *1167:A2 5.26 
*END

*D_NET *84 0.00802857
*CONN
*I *1296:A1 I *D gf180mcu_fd_sc_mcu7t5v0__oai31_1
*I *1165:A1 I *D gf180mcu_fd_sc_mcu7t5v0__nor2_1
*I *1267:A1 I *D gf180mcu_fd_sc_mcu7t5v0__xor2_1
*I *1140:ZN O *D gf180mcu_fd_sc_mcu7t5v0__clkinv_1
*CAP
1 *1296:A1 0.000777865
2 *1165:A1 0.000203111
3 *1267:A1 0.000401768
4 *1140:ZN 0.000301075
5 *84:26 0.00108167
6 *1165:A1 *1165:A2 1.5015e-05
7 *1165:A1 *1277:A2 0.000671518
8 *1165:A1 *1279:A1 0.000118466
9 *1165:A1 *1311:I1 9.77285e-05
10 *1165:A1 *194:19 2.17248e-05
11 *1165:A1 *253:12 0.000146806
12 *1267:A1 *205:10 0
13 *1267:A1 *295:23 0.000830141
14 *1296:A1 *1273:A1 0.000504192
15 *1296:A1 *1274:A1 0.000604634
16 *1296:A1 *1277:A1 0.000339493
17 *1296:A1 *1277:A2 2.976e-05
18 *1296:A1 *1296:B 0.00011955
19 *1296:A1 *1313:B 0.000107038
20 *1296:A1 *205:10 0.000281801
21 *1296:A1 *245:6 0.000964355
22 *1296:A1 *257:44 2.79476e-05
23 *84:26 *1311:I1 0.000142736
24 *84:26 *205:10 2.30587e-05
25 *84:26 *253:12 0.000194606
26 *84:26 *295:23 2.25184e-05
*RES
1 *1140:ZN *1267:A1 13.332 
2 *1267:A1 *84:26 10.52 
3 *84:26 *1165:A1 11.888 
4 *84:26 *1296:A1 27.5 
*END

*D_NET *85 0.00273513
*CONN
*I *1266:A1 I *D gf180mcu_fd_sc_mcu7t5v0__nand2_1
*I *1166:A3 I *D gf180mcu_fd_sc_mcu7t5v0__nand4_1
*I *1141:ZN O *D gf180mcu_fd_sc_mcu7t5v0__clkinv_1
*CAP
1 *1266:A1 0.000173413
2 *1166:A3 3.37205e-05
3 *1141:ZN 0.000188163
4 *85:8 0.000395297
5 *1166:A3 *1270:B 0.000147313
6 *1166:A3 *240:66 0.000372137
7 *1266:A1 *1269:A1 0
8 *1266:A1 *1269:A3 0.000196485
9 *1266:A1 *283:54 0.00056691
10 *85:8 *1269:A1 6.48337e-05
11 *85:8 *1278:A1 0.000269857
12 *85:8 *283:54 0.000165226
13 *1268:A1 *1166:A3 0.000161773
*RES
1 *1141:ZN *85:8 11.052 
2 *85:8 *1166:A3 9.988 
3 *85:8 *1266:A1 10.824 
*END

*D_NET *86 0.000516428
*CONN
*I *1190:A1 I *D gf180mcu_fd_sc_mcu7t5v0__aoi22_1
*I *1142:ZN O *D gf180mcu_fd_sc_mcu7t5v0__clkinv_1
*CAP
1 *1190:A1 8.77734e-05
2 *1142:ZN 8.77734e-05
3 *1190:A1 *1142:I 0.000127688
4 *1190:A1 *1198:A2 0
5 *1190:A1 *235:46 0.000213194
*RES
1 *1142:ZN *1190:A1 19.14 
*END

*D_NET *87 0.00615008
*CONN
*I *1198:A2 I *D gf180mcu_fd_sc_mcu7t5v0__aoi22_1
*I *1219:A2 I *D gf180mcu_fd_sc_mcu7t5v0__xor2_1
*I *1143:ZN O *D gf180mcu_fd_sc_mcu7t5v0__clkinv_1
*CAP
1 *1198:A2 0.0016666
2 *1219:A2 0.000280553
3 *1143:ZN 0
4 *87:6 0.00194716
5 *1198:A2 *1190:A2 7.8661e-05
6 *1198:A2 *1196:A2 3.76885e-05
7 *1198:A2 *1201:A2 6.14386e-05
8 *1198:A2 *1205:A2 0.000196843
9 *1198:A2 *1205:B1 0
10 *1198:A2 *1205:B2 0.000369191
11 *1198:A2 *1205:C1 9.14037e-06
12 *1198:A2 *1205:C2 0.000227141
13 *1198:A2 *89:25 0
14 *1198:A2 *97:8 1.81888e-05
15 *1198:A2 *231:46 0.000110393
16 *1219:A2 *1164:A2 0.000555095
17 *1219:A2 *1176:A2 6.2073e-05
18 *1219:A2 *1192:A1 0
19 *1219:A2 *1200:A2 9.13115e-05
20 *1219:A2 *1219:A1 9.026e-05
21 *1219:A2 *1224:A1 0.000148813
22 *1219:A2 *224:52 6.54978e-05
23 *1219:A2 *224:56 0.000119798
24 *1219:A2 *231:46 1.42348e-05
25 *1190:A1 *1198:A2 0
*RES
1 *1143:ZN *87:6 9 
2 *87:6 *1219:A2 12.344 
3 *87:6 *1198:A2 20.248 
*END

*D_NET *88 0.00203236
*CONN
*I *1202:A2 I *D gf180mcu_fd_sc_mcu7t5v0__aoi22_1
*I *1204:A2 I *D gf180mcu_fd_sc_mcu7t5v0__oai22_1
*I *1144:ZN O *D gf180mcu_fd_sc_mcu7t5v0__clkinv_1
*CAP
1 *1202:A2 3.26903e-05
2 *1204:A2 9.38034e-06
3 *1144:ZN 0.000399951
4 *88:12 0.000442021
5 *1202:A2 *1203:A3 5.76063e-06
6 *1202:A2 *1207:A2 1.3758e-05
7 *1204:A2 *1204:A1 0.000269865
8 *1204:A2 *1206:A2 0.000269865
9 *88:12 *1203:A1 0
10 *88:12 *1203:A3 1.76472e-05
11 *88:12 *1203:A4 0.000157001
12 *88:12 *1207:A2 4.02265e-05
13 *88:12 *1207:A3 0.000239213
14 *88:12 *1362:I 0
15 *88:12 *250:23 0.000134982
*RES
1 *1144:ZN *88:12 7.844 
2 *88:12 *1204:A2 14.184 
3 *88:12 *1202:A2 4.728 
*END

*D_NET *89 0.00722023
*CONN
*I *1202:B2 I *D gf180mcu_fd_sc_mcu7t5v0__aoi22_1
*I *1205:A2 I *D gf180mcu_fd_sc_mcu7t5v0__oai222_1
*I *1163:A2 I *D gf180mcu_fd_sc_mcu7t5v0__xor2_1
*I *1227:A1 I *D gf180mcu_fd_sc_mcu7t5v0__xor2_1
*I *1145:ZN O *D gf180mcu_fd_sc_mcu7t5v0__clkinv_1
*CAP
1 *1202:B2 5.77277e-05
2 *1205:A2 5.0331e-05
3 *1163:A2 0.000223347
4 *1227:A1 8.67062e-05
5 *1145:ZN 0.000396827
6 *89:29 0.000298918
7 *89:25 0.000922744
8 *89:10 0.00132331
9 *1163:A2 *1163:A1 1.5015e-05
10 *1163:A2 *1181:A1 0.000267504
11 *1163:A2 *1184:A1 0
12 *1163:A2 *1190:B1 4.18394e-05
13 *1163:A2 *251:10 0.000140918
14 *1202:B2 *1200:A4 5.66946e-05
15 *1202:B2 *1206:A2 0.000403764
16 *1202:B2 *1207:A4 7.93657e-06
17 *1202:B2 *251:16 0.000523959
18 *1227:A1 *1188:A2 0.000496763
19 *89:10 *1188:A2 1.11891e-05
20 *89:25 *1188:A2 0.000858374
21 *89:25 *1203:A1 0.000148623
22 *89:25 *1203:A2 2.40328e-06
23 *89:25 *1203:A3 0
24 *89:25 *1207:A4 1.99952e-05
25 *89:29 *1181:A1 0.000248218
26 *89:29 *251:10 3.06951e-05
27 *89:29 *251:16 0.000389591
28 *1198:A2 *1205:A2 0.000196843
29 *1198:A2 *89:25 0
*RES
1 *1145:ZN *89:10 11.812 
2 *89:10 *1227:A1 10.216 
3 *89:10 *89:25 10.504 
4 *89:25 *89:29 5.792 
5 *89:29 *1163:A2 11.128 
6 *89:29 *1205:A2 9.532 
7 *89:25 *1202:B2 15.172 
*END

*D_NET *90 0.00159516
*CONN
*I *1190:B1 I *D gf180mcu_fd_sc_mcu7t5v0__aoi22_1
*I *1205:B1 I *D gf180mcu_fd_sc_mcu7t5v0__oai222_1
*I *1146:ZN O *D gf180mcu_fd_sc_mcu7t5v0__clkinv_1
*CAP
1 *1190:B1 0.000275264
2 *1205:B1 0.000474147
3 *1146:ZN 0.000198883
4 *1190:B1 *1163:A1 2.40654e-06
5 *1190:B1 *1205:B2 0.000349417
6 *1205:B1 *1184:A1 0
7 *1205:B1 *1205:C1 0.000118147
8 *1205:B1 *1205:C2 0.000135056
9 *1163:A2 *1190:B1 4.18394e-05
10 *1198:A2 *1205:B1 0
*RES
1 *1146:ZN *1205:B1 10.596 
2 *1205:B1 *1190:B1 11.204 
*END

*D_NET *91 0.0022271
*CONN
*I *1199:A1 I *D gf180mcu_fd_sc_mcu7t5v0__aoi221_1
*I *1204:B1 I *D gf180mcu_fd_sc_mcu7t5v0__oai22_1
*I *1147:ZN O *D gf180mcu_fd_sc_mcu7t5v0__clkinv_1
*CAP
1 *1199:A1 0
2 *1204:B1 0.000506104
3 *1147:ZN 6.82628e-05
4 *91:10 0.000574367
5 *1204:B1 *1179:A1 1.15275e-05
6 *1204:B1 *1179:A2 2.85165e-05
7 *1204:B1 *1199:A2 0.000686279
8 *1204:B1 *241:21 7.53241e-05
9 *91:10 *1178:A2 0.000276717
10 *91:10 *1179:A1 0
*RES
1 *1147:ZN *91:10 14.184 
2 *91:10 *1204:B1 8.984 
3 *91:10 *1199:A1 4.5 
*END

*D_NET *92 0.00461236
*CONN
*I *1185:A2 I *D gf180mcu_fd_sc_mcu7t5v0__xor2_1
*I *1236:A1 I *D gf180mcu_fd_sc_mcu7t5v0__nand2_1
*I *1148:ZN O *D gf180mcu_fd_sc_mcu7t5v0__clkinv_1
*CAP
1 *1185:A2 0.000287283
2 *1236:A1 0.000512887
3 *1148:ZN 0
4 *92:4 0.000800171
5 *1185:A2 *1148:I 8.55242e-05
6 *1185:A2 *1185:A1 0.00026473
7 *1185:A2 *1195:A1 9.92577e-05
8 *1185:A2 *1195:A2 9.27021e-05
9 *1185:A2 *168:27 0.000310587
10 *1185:A2 *281:102 0
11 *1236:A1 *1148:I 0.000326107
12 *1236:A1 *1208:A1 6.9959e-05
13 *1236:A1 *1217:A3 7.42484e-05
14 *1236:A1 *1236:A2 3.08902e-05
15 *1236:A1 *1238:A2 0.000681038
16 *1236:A1 *1238:A3 3.21504e-05
17 *1236:A1 *1365:I 0.000379274
18 *1236:A1 *130:8 0.000161593
19 *1236:A1 *168:12 0
20 *1236:A1 *168:27 0.000140959
21 *1236:A1 *236:40 0
22 *1236:A1 *242:26 0.000262996
*RES
1 *1148:ZN *92:4 4.5 
2 *92:4 *1236:A1 19.504 
3 *92:4 *1185:A2 7.92 
*END

*D_NET *93 0.00373766
*CONN
*I *1170:A1 I *D gf180mcu_fd_sc_mcu7t5v0__xor2_1
*I *1199:B1 I *D gf180mcu_fd_sc_mcu7t5v0__aoi221_1
*I *1149:ZN O *D gf180mcu_fd_sc_mcu7t5v0__clkinv_1
*CAP
1 *1170:A1 0.000439155
2 *1199:B1 3.51562e-05
3 *1149:ZN 0.000120758
4 *93:12 0.000595069
5 *1170:A1 *1147:I 0.000143649
6 *1170:A1 *1178:A2 0.000859634
7 *1170:A1 *1198:B2 0
8 *1170:A1 *1366:I 7.83779e-05
9 *1170:A1 *168:27 1.3758e-05
10 *1170:A1 *254:12 0.00095033
11 *1199:B1 *1199:A2 9.88736e-06
12 *1199:B1 *238:48 2.96621e-05
13 *93:12 *1178:A2 0.000206333
14 *93:12 *1198:B2 0
15 *93:12 *1203:A3 5.48085e-05
16 *93:12 *238:48 0.00020108
*RES
1 *1149:ZN *93:12 10.292 
2 *93:12 *1199:B1 9.228 
3 *93:12 *1170:A1 14.472 
*END

*D_NET *94 0.0022987
*CONN
*I *1239:A1 I *D gf180mcu_fd_sc_mcu7t5v0__nor2_1
*I *1243:A1 I *D gf180mcu_fd_sc_mcu7t5v0__nor3_1
*I *1194:A2 I *D gf180mcu_fd_sc_mcu7t5v0__aoi22_1
*I *1150:ZN O *D gf180mcu_fd_sc_mcu7t5v0__clkinv_1
*CAP
1 *1239:A1 6.01339e-05
2 *1243:A1 6.72043e-05
3 *1194:A2 4.64568e-05
4 *1150:ZN 0
5 *94:17 0.000338579
6 *94:4 0.000257698
7 *1194:A2 *1149:I 3.08902e-05
8 *1194:A2 *238:48 0.000221732
9 *1194:A2 *255:14 0.000500461
10 *1239:A1 *1242:A1 7.19163e-06
11 *1239:A1 *168:42 0.00010198
12 *1239:A1 *172:14 6.15455e-05
13 *1243:A1 *1242:A1 1.49066e-06
14 *1243:A1 *1242:A2 0
15 *1243:A1 *168:42 2.96621e-05
16 *1243:A1 *172:14 9.88736e-06
17 *94:17 *239:14 4.66861e-05
18 *94:17 *243:56 0.000517099
*RES
1 *1150:ZN *94:4 4.5 
2 *94:4 *1194:A2 5.792 
3 *94:4 *94:17 10.748 
4 *94:17 *1243:A1 4.956 
5 *94:17 *1239:A1 5.184 
*END

*D_NET *95 0.00108021
*CONN
*I *1194:B1 I *D gf180mcu_fd_sc_mcu7t5v0__aoi22_1
*I *1151:ZN O *D gf180mcu_fd_sc_mcu7t5v0__clkinv_1
*CAP
1 *1194:B1 0.000100742
2 *1151:ZN 0.000100742
3 *1194:B1 *1198:B2 0.000530811
4 *1194:B1 *1199:C 0.000107657
5 *1194:B1 *1203:A3 0.000193942
6 *1194:B1 *226:30 4.63109e-05
*RES
1 *1151:ZN *1194:B1 19.824 
*END

*D_NET *96 0.00429974
*CONN
*I *1243:A2 I *D gf180mcu_fd_sc_mcu7t5v0__nor3_1
*I *1198:B2 I *D gf180mcu_fd_sc_mcu7t5v0__aoi22_1
*I *1152:ZN O *D gf180mcu_fd_sc_mcu7t5v0__clkinv_1
*CAP
1 *1243:A2 8.05085e-06
2 *1198:B2 0.000781475
3 *1152:ZN 1.06587e-05
4 *96:8 0.000800185
5 *1198:B2 *1151:I 0.000460436
6 *1198:B2 *1152:I 7.83779e-05
7 *1198:B2 *1197:A1 6.71936e-05
8 *1198:B2 *1198:B1 0.000201948
9 *1198:B2 *1199:C 0.00038999
10 *1198:B2 *1206:A1 3.23651e-05
11 *1198:B2 *1363:I 8.2746e-05
12 *1198:B2 *168:35 1.58969e-05
13 *1198:B2 *168:42 9.17202e-06
14 *1198:B2 *238:48 5.09739e-06
15 *1243:A2 *239:12 0.000242677
16 *1243:A2 *243:56 0.000269865
17 *96:8 *239:12 8.15645e-05
18 *96:8 *239:14 8.8425e-05
19 *96:8 *243:56 0.000142801
20 *1170:A1 *1198:B2 0
21 *1194:B1 *1198:B2 0.000530811
22 *93:12 *1198:B2 0
*RES
1 *1152:ZN *96:8 9.38 
2 *96:8 *1198:B2 25.068 
3 *96:8 *1243:A2 9.684 
*END

*D_NET *97 0.00218378
*CONN
*I *1196:A1 I *D gf180mcu_fd_sc_mcu7t5v0__aoi21_1
*I *1205:C1 I *D gf180mcu_fd_sc_mcu7t5v0__oai222_1
*I *1153:ZN O *D gf180mcu_fd_sc_mcu7t5v0__clkinv_1
*CAP
1 *1196:A1 0
2 *1205:C1 0.000343338
3 *1153:ZN 0.000310415
4 *97:8 0.000653753
5 *1205:C1 *1171:A1 4.13847e-05
6 *1205:C1 *1171:A2 0.000137785
7 *1205:C1 *1183:A2 0.000161681
8 *1205:C1 *1184:A1 0
9 *1205:C1 *1184:A2 0
10 *1205:C1 *1196:A2 4.80955e-05
11 *1205:C1 *1205:C2 0.000232192
12 *1205:C1 *230:32 1.15275e-05
13 *97:8 *1198:B1 0
14 *97:8 *230:32 9.81346e-05
15 *1198:A2 *1205:C1 9.14037e-06
16 *1198:A2 *97:8 1.81888e-05
17 *1205:B1 *1205:C1 0.000118147
*RES
1 *1153:ZN *97:8 6.628 
2 *97:8 *1205:C1 7.844 
3 *97:8 *1196:A1 4.5 
*END

*D_NET *98 0.00174088
*CONN
*I *1216:A1 I *D gf180mcu_fd_sc_mcu7t5v0__nor2_1
*I *1154:ZN O *D gf180mcu_fd_sc_mcu7t5v0__clkinv_1
*CAP
1 *1216:A1 0.000239471
2 *1154:ZN 0.000239471
3 *1216:A1 *1154:I 8.30464e-05
4 *1216:A1 *1397:I 0.000372137
5 *1216:A1 *1408:I 2.70169e-05
6 *1216:A1 *284:31 0.000346979
7 *1216:A1 *291:14 0.000242228
8 err_overflow_o *1216:A1 8.84331e-05
9 *1388:I *1216:A1 0.000102094
*RES
1 *1154:ZN *1216:A1 21.496 
*END

*D_NET *99 0.00217332
*CONN
*I *1283:A1 I *D gf180mcu_fd_sc_mcu7t5v0__nor2_1
*I *1265:A1 I *D gf180mcu_fd_sc_mcu7t5v0__or2_1
*I *1264:A1 I *D gf180mcu_fd_sc_mcu7t5v0__or2_1
*I *1155:ZN O *D gf180mcu_fd_sc_mcu7t5v0__clkinv_1
*CAP
1 *1283:A1 0.00019234
2 *1265:A1 0
3 *1264:A1 0.000549717
4 *1155:ZN 0.000274559
5 *99:21 0.00019234
6 *99:8 0.000824275
7 *1264:A1 *1354:SETN 9.21809e-06
8 *99:8 *1354:SETN 3.31851e-05
9 *1354:D *1264:A1 4.47747e-05
10 *1355:D *1283:A1 5.29084e-05
*RES
1 *1155:ZN *99:8 10.444 
2 *99:8 *1264:A1 12.192 
3 *99:8 *99:21 4.5 
4 *99:21 *1265:A1 4.5 
5 *99:21 *1283:A1 5.792 
*END

*D_NET *100 0.00166024
*CONN
*I *1316:A3 I *D gf180mcu_fd_sc_mcu7t5v0__nand4_1
*I *1317:A1 I *D gf180mcu_fd_sc_mcu7t5v0__oai21_1
*I *1156:ZN O *D gf180mcu_fd_sc_mcu7t5v0__clkinv_1
*CAP
1 *1316:A3 0
2 *1317:A1 0.000276126
3 *1156:ZN 0.000108459
4 *100:8 0.000384585
5 *1317:A1 *1315:A1 0
6 *1317:A1 *1317:B 0.000276453
7 *1317:A1 *1361:I 4.05628e-05
8 *1317:A1 *241:77 3.85399e-05
9 *1317:A1 *282:31 0.000340241
10 *1317:A1 *282:59 0
11 *100:8 *282:31 0.000190418
12 *100:8 *282:59 0
13 *100:8 *292:25 3.50638e-06
14 *100:8 *292:41 1.34641e-06
*RES
1 *1156:ZN *100:8 9.988 
2 *100:8 *1317:A1 11.736 
3 *100:8 *1316:A3 9 
*END

*D_NET *101 0.000153284
*CONN
*I *1287:A2 I *D gf180mcu_fd_sc_mcu7t5v0__oai211_1
*I *1157:ZN O *D gf180mcu_fd_sc_mcu7t5v0__clkinv_1
*CAP
1 *1287:A2 7.53565e-05
2 *1157:ZN 7.53565e-05
3 *43:22 *1287:A2 2.57058e-06
*RES
1 *1157:ZN *1287:A2 9.532 
*END

*D_NET *102 0.00188466
*CONN
*I *1303:A2 I *D gf180mcu_fd_sc_mcu7t5v0__nand2_1
*I *1158:ZN O *D gf180mcu_fd_sc_mcu7t5v0__clkinv_1
*CAP
1 *1303:A2 0.000549329
2 *1158:ZN 0.000549329
3 *1303:A2 *1303:A1 0.000317503
4 *1303:A2 *1406:I 1.91917e-06
5 *1303:A2 *246:8 4.39253e-05
6 *1303:A2 *257:10 1.23313e-05
7 *1303:A2 *284:61 0
8 rx_data_o[7] *1303:A2 0.000379283
9 *1384:I *1303:A2 3.10417e-05
*RES
1 *1158:ZN *1303:A2 22.256 
*END

*D_NET *103 0.00407815
*CONN
*I *1212:A3 I *D gf180mcu_fd_sc_mcu7t5v0__nand3_1
*I *1166:A4 I *D gf180mcu_fd_sc_mcu7t5v0__nand4_1
*I *1160:A2 I *D gf180mcu_fd_sc_mcu7t5v0__nand2_1
*I *1209:A2 I *D gf180mcu_fd_sc_mcu7t5v0__xor2_1
*I *1159:ZN O *D gf180mcu_fd_sc_mcu7t5v0__nor2_1
*CAP
1 *1212:A3 0.000316675
2 *1166:A4 2.82683e-05
3 *1160:A2 0
4 *1209:A2 0.000309329
5 *1159:ZN 0.000110303
6 *103:29 0.000524501
7 *103:20 0.000378583
8 *1166:A4 *1270:B 0.000255722
9 *1166:A4 *240:66 5.23776e-05
10 *1209:A2 *197:16 0.000314174
11 *1212:A3 *1266:A2 0.000164678
12 *1212:A3 *1270:B 0.000132633
13 *1212:A3 *1319:A3 0.000727667
14 *1212:A3 *244:78 3.95494e-05
15 *103:20 *1269:A1 0
16 *103:20 *109:8 0.000111266
17 *103:29 *1269:A1 0
18 *103:29 *1270:B 4.07251e-05
19 *1209:A1 *1209:A2 0.000201937
20 *1268:A1 *1166:A4 0.000369763
*RES
1 *1159:ZN *1209:A2 10.748 
2 *1209:A2 *103:20 10.596 
3 *103:20 *1160:A2 9 
4 *103:20 *103:29 0.988 
5 *103:29 *1166:A4 9.988 
6 *103:29 *1212:A3 12.268 
*END

*D_NET *104 0.00122884
*CONN
*I *1177:A1 I *D gf180mcu_fd_sc_mcu7t5v0__nor4_1
*I *1161:Z O *D gf180mcu_fd_sc_mcu7t5v0__xor2_1
*CAP
1 *1177:A1 0.000199111
2 *1161:Z 0.000199111
3 *1177:A1 *1177:A2 0.000372137
4 *1177:A1 *1181:A1 0.00019508
5 *1177:A1 *248:14 2.59005e-05
6 *1177:A1 *250:8 0.00021377
7 *1177:A1 *251:10 2.37298e-05
*RES
1 *1161:Z *1177:A1 20.28 
*END

*D_NET *105 0.000595744
*CONN
*I *1180:A1 I *D gf180mcu_fd_sc_mcu7t5v0__nor4_1
*I *1162:Z O *D gf180mcu_fd_sc_mcu7t5v0__xor2_1
*CAP
1 *1180:A1 6.9232e-05
2 *1162:Z 6.9232e-05
3 *1180:A1 *1181:A2 7.59985e-05
4 *1180:A1 *236:40 1.15275e-05
5 *1180:A1 *276:84 0.000369754
*RES
1 *1162:Z *1180:A1 9.988 
*END

*D_NET *106 0.000979732
*CONN
*I *1184:A1 I *D gf180mcu_fd_sc_mcu7t5v0__nand3_1
*I *1163:Z O *D gf180mcu_fd_sc_mcu7t5v0__xor2_1
*CAP
1 *1184:A1 0.000469451
2 *1163:Z 0.000469451
3 *1184:A1 *1171:A1 1.52768e-05
4 *1184:A1 *1184:A2 1.72912e-05
5 *1184:A1 *1205:C2 8.26254e-06
6 *1163:A2 *1184:A1 0
7 *1205:B1 *1184:A1 0
8 *1205:C1 *1184:A1 0
*RES
1 *1163:Z *1184:A1 11.66 
*END

*D_NET *107 0.00113692
*CONN
*I *1177:A2 I *D gf180mcu_fd_sc_mcu7t5v0__nor4_1
*I *1164:Z O *D gf180mcu_fd_sc_mcu7t5v0__xor2_1
*CAP
1 *1177:A2 0.000186714
2 *1164:Z 0.000186714
3 *1177:A2 *1161:A2 4.24995e-05
4 *1177:A2 *1200:A2 0.000343088
5 *1177:A2 *1200:A3 5.76373e-06
6 *1177:A2 *248:14 0
7 *1177:A1 *1177:A2 0.000372137
*RES
1 *1164:Z *1177:A2 11.28 
*END

*D_NET *108 0.00110426
*CONN
*I *1278:A2 I *D gf180mcu_fd_sc_mcu7t5v0__oai22_1
*I *1165:ZN O *D gf180mcu_fd_sc_mcu7t5v0__nor2_1
*CAP
1 *1278:A2 9.38542e-05
2 *1165:ZN 9.38542e-05
3 *1278:A2 *1165:A2 0.000239048
4 *1278:A2 *1278:A1 0.000331102
5 *1278:A2 *194:19 2.2165e-05
6 *1278:A2 *283:54 0.000324233
*RES
1 *1165:ZN *1278:A2 19.52 
*END

*D_NET *109 0.00713041
*CONN
*I *1270:B I *D gf180mcu_fd_sc_mcu7t5v0__oai21_1
*I *1168:B I *D gf180mcu_fd_sc_mcu7t5v0__oai21_1
*I *1211:A1 I *D gf180mcu_fd_sc_mcu7t5v0__aoi21_1
*I *1210:A1 I *D gf180mcu_fd_sc_mcu7t5v0__nand2_1
*I *1166:ZN O *D gf180mcu_fd_sc_mcu7t5v0__nand4_1
*CAP
1 *1270:B 0.000531201
2 *1168:B 0
3 *1211:A1 5.51198e-05
4 *1210:A1 9.4486e-05
5 *1166:ZN 0.00095392
6 *109:10 0.000389319
7 *109:8 0.000662432
8 *1210:A1 *1210:A2 0.000396904
9 *1210:A1 *1211:B 3.19219e-05
10 *1211:A1 *244:35 5.71374e-05
11 *1270:B *1269:A1 0.000112027
12 *1270:B *240:66 0.000243561
13 *109:8 *1269:A1 0.000607455
14 *109:8 *152:12 0.000804996
15 *109:10 *1210:A2 0.000151957
16 *109:10 *152:12 0.00127047
17 *1166:A3 *1270:B 0.000147313
18 *1166:A4 *1270:B 0.000255722
19 *1212:A3 *1270:B 0.000132633
20 *1268:A1 *1270:B 7.98438e-05
21 *103:20 *109:8 0.000111266
22 *103:29 *1270:B 4.07251e-05
*RES
1 *1166:ZN *109:8 14.092 
2 *109:8 *109:10 3.42 
3 *109:10 *1210:A1 10.14 
4 *109:10 *1211:A1 9.38 
5 *109:8 *1168:B 9 
6 *1166:ZN *1270:B 22.408 
*END

*D_NET *110 0.0108482
*CONN
*I *1269:A1 I *D gf180mcu_fd_sc_mcu7t5v0__nor3_1
*I *1168:A2 I *D gf180mcu_fd_sc_mcu7t5v0__oai21_1
*I *1272:A2 I *D gf180mcu_fd_sc_mcu7t5v0__nor2_1
*I *1284:A2 I *D gf180mcu_fd_sc_mcu7t5v0__oai21_1
*I *1167:ZN O *D gf180mcu_fd_sc_mcu7t5v0__nand2_1
*CAP
1 *1269:A1 0.0006383
2 *1168:A2 6.40467e-05
3 *1272:A2 0
4 *1284:A2 0.000161914
5 *1167:ZN 0.000406365
6 *110:34 0.00101732
7 *110:25 0.000359662
8 *110:10 0.000612966
9 *1168:A2 *152:12 0.000342519
10 *1168:A2 *283:54 0
11 *1269:A1 *1141:I 8.9996e-05
12 *1269:A1 *1269:A3 3.15948e-05
13 *1269:A1 *1278:A1 0
14 *1269:A1 *152:12 0.000226661
15 *1269:A1 *283:54 0
16 *1269:A1 *294:10 0.000185141
17 *1284:A2 *1322:RN 0
18 *1284:A2 *1369:I 3.82115e-05
19 *110:10 *1369:I 0.000264637
20 *110:10 *197:16 0.000342519
21 *110:25 *1272:A1 0.000105105
22 *110:25 *1282:B 0.000663505
23 *110:25 *197:16 0
24 *110:34 *1272:A1 0.00138094
25 *110:34 *283:56 0
26 *1167:A2 *110:10 8.55327e-05
27 *1168:A1 *110:34 8.43367e-05
28 *1266:A1 *1269:A1 0
29 *1270:B *1269:A1 0.000112027
30 *1285:I0 *1284:A2 1.5015e-05
31 *41:8 *1284:A2 0.000199473
32 *41:8 *110:10 0.000578336
33 *41:55 *110:10 0.000800668
34 *42:25 *110:10 8.55327e-05
35 *42:61 *1284:A2 0.000148177
36 *42:61 *110:25 0.000910626
37 *42:61 *110:34 0.000224824
38 *85:8 *1269:A1 6.48337e-05
39 *103:20 *1269:A1 0
40 *103:29 *1269:A1 0
41 *109:8 *1269:A1 0.000607455
*RES
1 *1167:ZN *110:10 13.712 
2 *110:10 *1284:A2 10.52 
3 *110:10 *110:25 6.856 
4 *110:25 *1272:A2 4.5 
5 *110:25 *110:34 8.528 
6 *110:34 *1168:A2 9.836 
7 *110:34 *1269:A1 15.308 
*END

*D_NET *111 0.00827939
*CONN
*I *1187:A1 I *D gf180mcu_fd_sc_mcu7t5v0__or4_1
*I *1207:A1 I *D gf180mcu_fd_sc_mcu7t5v0__nand4_1
*I *1168:ZN O *D gf180mcu_fd_sc_mcu7t5v0__oai21_1
*CAP
1 *1187:A1 0
2 *1207:A1 0.000146604
3 *1168:ZN 0.00135065
4 *111:12 0.00149725
5 *1207:A1 *1181:A1 0.00150147
6 *1207:A1 *1187:A2 0.000374032
7 *1207:A1 *1200:A4 0
8 *1207:A1 *1366:I 9.17202e-06
9 *1207:A1 *150:8 0.0018191
10 *1207:A1 *235:46 0
11 *1207:A1 *241:39 0.000131642
12 *111:12 *1187:A2 2.90023e-05
13 *111:12 *1200:A4 0.000245108
14 *111:12 *1208:A2 1.37792e-05
15 *111:12 *1217:A1 9.15501e-05
16 *111:12 *1272:A1 0
17 *111:12 *1335:CLK 2.43212e-05
18 *111:12 *150:8 1.16164e-05
19 *111:12 *240:10 4.63109e-05
20 *111:12 *240:14 0
21 *111:12 *244:12 7.35279e-05
22 *111:12 *244:35 0.000653285
23 *111:12 *283:54 2.90023e-05
24 *111:12 *283:56 0.000231978
*RES
1 *1168:ZN *111:12 24.748 
2 *111:12 *1207:A1 18.972 
3 *111:12 *1187:A1 4.5 
*END

*D_NET *112 0.000877979
*CONN
*I *1182:A1 I *D gf180mcu_fd_sc_mcu7t5v0__nor4_1
*I *1169:Z O *D gf180mcu_fd_sc_mcu7t5v0__xor2_1
*CAP
1 *1182:A1 0.000191428
2 *1169:Z 0.000191428
3 *1182:A1 *1182:A3 0.000138817
4 *1182:A1 *230:32 0.000356305
*RES
1 *1169:Z *1182:A1 11.052 
*END

*D_NET *113 0.000529103
*CONN
*I *1186:A1 I *D gf180mcu_fd_sc_mcu7t5v0__nand2_1
*I *1170:Z O *D gf180mcu_fd_sc_mcu7t5v0__xor2_1
*CAP
1 *1186:A1 0.000147741
2 *1170:Z 0.000147741
3 *1186:A1 *1366:I 6.68265e-05
4 *1186:A1 *241:11 0
5 *1186:A1 *254:12 4.72461e-05
6 *26:10 *1186:A1 0.00011955
*RES
1 *1170:Z *1186:A1 19.368 
*END

*D_NET *114 0.00163988
*CONN
*I *1182:A2 I *D gf180mcu_fd_sc_mcu7t5v0__nor4_1
*I *1171:Z O *D gf180mcu_fd_sc_mcu7t5v0__xor2_1
*CAP
1 *1182:A2 0.00028429
2 *1171:Z 0.00028429
3 *1182:A2 *1184:A2 0.0010713
*RES
1 *1171:Z *1182:A2 11.812 
*END

*D_NET *115 0.00205449
*CONN
*I *1180:A2 I *D gf180mcu_fd_sc_mcu7t5v0__nor4_1
*I *1172:Z O *D gf180mcu_fd_sc_mcu7t5v0__xor2_1
*CAP
1 *1180:A2 0.000434052
2 *1172:Z 0.000434052
3 *1180:A2 *1162:A1 0.000231988
4 *1180:A2 *237:22 0.000629558
5 *1180:A2 *276:84 0.000324839
*RES
1 *1172:Z *1180:A2 13.94 
*END

*D_NET *116 0.000549695
*CONN
*I *1182:A3 I *D gf180mcu_fd_sc_mcu7t5v0__nor4_1
*I *1173:Z O *D gf180mcu_fd_sc_mcu7t5v0__xor2_1
*CAP
1 *1182:A3 0.000182216
2 *1173:Z 0.000182216
3 *1182:A3 *1182:A4 4.64471e-05
4 *1182:A1 *1182:A3 0.000138817
*RES
1 *1173:Z *1182:A3 10.444 
*END

*D_NET *117 0.000566384
*CONN
*I *1182:A4 I *D gf180mcu_fd_sc_mcu7t5v0__nor4_1
*I *1174:Z O *D gf180mcu_fd_sc_mcu7t5v0__xor2_1
*CAP
1 *1182:A4 0.000250958
2 *1174:Z 0.000250958
3 *1182:A4 *279:18 1.80215e-05
4 *1182:A3 *1182:A4 4.64471e-05
*RES
1 *1174:Z *1182:A4 10.596 
*END

*D_NET *118 0.002773
*CONN
*I *1177:A3 I *D gf180mcu_fd_sc_mcu7t5v0__nor4_1
*I *1175:Z O *D gf180mcu_fd_sc_mcu7t5v0__xor2_1
*CAP
1 *1177:A3 0.00069844
2 *1175:Z 0.00069844
3 *1177:A3 *1183:A1 8.55242e-05
4 *1177:A3 *1184:A3 8.7332e-05
5 *1177:A3 *1189:A2 5.09899e-05
6 *1177:A3 *1193:A1 0.000770399
7 *1177:A3 *1200:A1 1.45141e-05
8 *1177:A3 *1200:A2 3.04039e-05
9 *1177:A3 *1200:A3 4.8881e-05
10 *1177:A3 *1200:A4 8.69929e-05
11 *1177:A3 *1201:A4 0.00020108
*RES
1 *1175:Z *1177:A3 14.7 
*END

*D_NET *119 0.00159299
*CONN
*I *1177:A4 I *D gf180mcu_fd_sc_mcu7t5v0__nor4_1
*I *1176:Z O *D gf180mcu_fd_sc_mcu7t5v0__xor2_1
*CAP
1 *1177:A4 0.000443843
2 *1176:Z 0.000443843
3 *1177:A4 *1161:A1 0.00026256
4 *1177:A4 *1181:A1 0.000193942
5 *1177:A4 *1200:A2 5.19635e-05
6 *1177:A4 *248:14 0.000196837
*RES
1 *1176:Z *1177:A4 12.496 
*END

*D_NET *120 0.00637076
*CONN
*I *1181:A1 I *D gf180mcu_fd_sc_mcu7t5v0__nand2_1
*I *1177:ZN O *D gf180mcu_fd_sc_mcu7t5v0__nor4_1
*CAP
1 *1181:A1 0.000759575
2 *1177:ZN 0.000759575
3 *1181:A1 *1162:A1 0.000695314
4 *1181:A1 *1200:A2 8.95196e-05
5 *1181:A1 *1200:A4 4.56489e-05
6 *1181:A1 *1207:A4 0.000505673
7 *1181:A1 *235:46 0
8 *1181:A1 *250:8 0.0002557
9 *1181:A1 *250:23 0.000490575
10 *1181:A1 *251:10 0.000172618
11 *1181:A1 *251:16 0.000190346
12 *1163:A2 *1181:A1 0.000267504
13 *1177:A1 *1181:A1 0.00019508
14 *1177:A4 *1181:A1 0.000193942
15 *1207:A1 *1181:A1 0.00150147
16 *89:29 *1181:A1 0.000248218
*RES
1 *1177:ZN *1181:A1 30.768 
*END

*D_NET *121 0.00222226
*CONN
*I *1180:A3 I *D gf180mcu_fd_sc_mcu7t5v0__nor4_1
*I *1178:Z O *D gf180mcu_fd_sc_mcu7t5v0__xor2_1
*CAP
1 *1180:A3 0.00041529
2 *1178:Z 0.00041529
3 *1180:A3 *1147:I 9.88736e-06
4 *1180:A3 *1180:A4 0.00106892
5 *1180:A3 *241:21 7.44711e-05
6 *1180:A3 *276:84 0.000238397
*RES
1 *1178:Z *1180:A3 13.484 
*END

*D_NET *122 0.00164859
*CONN
*I *1180:A4 I *D gf180mcu_fd_sc_mcu7t5v0__nor4_1
*I *1179:Z O *D gf180mcu_fd_sc_mcu7t5v0__xor2_1
*CAP
1 *1180:A4 0.000259182
2 *1179:Z 0.000259182
3 *1180:A4 *241:21 6.13012e-05
4 *1180:A3 *1180:A4 0.00106892
*RES
1 *1179:Z *1180:A4 11.812 
*END

*D_NET *123 0.000486927
*CONN
*I *1181:A2 I *D gf180mcu_fd_sc_mcu7t5v0__nand2_1
*I *1180:ZN O *D gf180mcu_fd_sc_mcu7t5v0__nor4_1
*CAP
1 *1181:A2 0.000139643
2 *1180:ZN 0.000139643
3 *1181:A2 *236:40 0.000131642
4 *1180:A1 *1181:A2 7.59985e-05
*RES
1 *1180:ZN *1181:A2 10.216 
*END

*D_NET *124 0.00104044
*CONN
*I *1187:A2 I *D gf180mcu_fd_sc_mcu7t5v0__or4_1
*I *1181:ZN O *D gf180mcu_fd_sc_mcu7t5v0__nand2_1
*CAP
1 *1187:A2 0.000115685
2 *1181:ZN 0.000115685
3 *1187:A2 *1200:A4 1.97234e-05
4 *1187:A2 *1366:I 0.000307983
5 *1187:A2 *150:8 6.38438e-05
6 *1187:A2 *241:39 1.44832e-05
7 *1207:A1 *1187:A2 0.000374032
8 *111:12 *1187:A2 2.90023e-05
*RES
1 *1181:ZN *1187:A2 19.824 
*END

*D_NET *125 0.00227408
*CONN
*I *1184:A2 I *D gf180mcu_fd_sc_mcu7t5v0__nand3_1
*I *1182:ZN O *D gf180mcu_fd_sc_mcu7t5v0__nor4_1
*CAP
1 *1184:A2 0.000449439
2 *1182:ZN 0.000449439
3 *1184:A2 *1171:A1 5.59708e-05
4 *1184:A2 *1183:A2 1.95187e-05
5 *1184:A2 *1184:A3 0
6 *1184:A2 *230:32 0.000211119
7 *1182:A2 *1184:A2 0.0010713
8 *1184:A1 *1184:A2 1.72912e-05
9 *1205:C1 *1184:A2 0
*RES
1 *1182:ZN *1184:A2 13.56 
*END

*D_NET *126 0.000948172
*CONN
*I *1184:A3 I *D gf180mcu_fd_sc_mcu7t5v0__nand3_1
*I *1183:ZN O *D gf180mcu_fd_sc_mcu7t5v0__xnor2_1
*CAP
1 *1184:A3 0.000225224
2 *1183:ZN 0.000225224
3 *1184:A3 *1201:A4 4.40561e-05
4 *1184:A3 *252:12 0.000366335
5 *1177:A3 *1184:A3 8.7332e-05
6 *1184:A2 *1184:A3 0
*RES
1 *1183:ZN *1184:A3 19.824 
*END

*D_NET *127 0.00431567
*CONN
*I *1187:A3 I *D gf180mcu_fd_sc_mcu7t5v0__or4_1
*I *1184:ZN O *D gf180mcu_fd_sc_mcu7t5v0__nand3_1
*CAP
1 *1187:A3 0.00112717
2 *1184:ZN 0.00112717
3 *1187:A3 *1171:A2 0
4 *1187:A3 *1187:A4 8.18282e-05
5 *1187:A3 *1195:A2 8.64364e-05
6 *1187:A3 *1200:A4 0.00092111
7 *1187:A3 *1201:A4 0
8 *1187:A3 *1205:C2 0.000164455
9 *1187:A3 *1206:A3 0.000168743
10 *1187:A3 *1207:A2 0.000350409
11 *1187:A3 *1366:I 0.000193933
12 *1187:A3 *236:40 1.46159e-05
13 *1187:A3 *252:12 7.98048e-05
*RES
1 *1184:ZN *1187:A3 30.008 
*END

*D_NET *128 0.000185505
*CONN
*I *1186:A2 I *D gf180mcu_fd_sc_mcu7t5v0__nand2_1
*I *1185:Z O *D gf180mcu_fd_sc_mcu7t5v0__xor2_1
*CAP
1 *1186:A2 4.77077e-05
2 *1185:Z 4.77077e-05
3 *1186:A2 *1187:A4 4.50449e-05
4 *1186:A2 *168:27 4.50449e-05
*RES
1 *1185:Z *1186:A2 9.532 
*END

*D_NET *129 0.00123077
*CONN
*I *1187:A4 I *D gf180mcu_fd_sc_mcu7t5v0__or4_1
*I *1186:ZN O *D gf180mcu_fd_sc_mcu7t5v0__nand2_1
*CAP
1 *1187:A4 0.000268681
2 *1186:ZN 0.000268681
3 *1187:A4 *1200:A4 0.00011955
4 *1187:A4 *1366:I 0.000232337
5 *1187:A4 *168:27 0.000214647
6 *1186:A2 *1187:A4 4.50449e-05
7 *1187:A3 *1187:A4 8.18282e-05
*RES
1 *1186:ZN *1187:A4 12.04 
*END

*D_NET *130 0.00101753
*CONN
*I *1217:A1 I *D gf180mcu_fd_sc_mcu7t5v0__nand3_1
*I *1208:A1 I *D gf180mcu_fd_sc_mcu7t5v0__and2_1
*I *1187:Z O *D gf180mcu_fd_sc_mcu7t5v0__or4_1
*CAP
1 *1217:A1 6.22725e-05
2 *1208:A1 5.3004e-05
3 *1187:Z 5.9387e-05
4 *130:8 0.000174663
5 *1208:A1 *1217:A3 2.6126e-05
6 *1208:A1 *168:27 4.98138e-05
7 *1217:A1 *1208:A2 0.000117404
8 *1217:A1 *150:8 7.98048e-05
9 *130:8 *168:27 7.195e-05
10 *1236:A1 *1208:A1 6.9959e-05
11 *1236:A1 *130:8 0.000161593
12 *111:12 *1217:A1 9.15501e-05
*RES
1 *1187:Z *130:8 5.26 
2 *130:8 *1208:A1 5.108 
3 *130:8 *1217:A1 14.488 
*END

*D_NET *131 0.000767226
*CONN
*I *1203:A1 I *D gf180mcu_fd_sc_mcu7t5v0__and4_1
*I *1188:ZN O *D gf180mcu_fd_sc_mcu7t5v0__xnor2_1
*CAP
1 *1203:A1 0.00029062
2 *1188:ZN 0.00029062
3 *1203:A1 *1203:A2 3.73627e-05
4 *88:12 *1203:A1 0
5 *89:25 *1203:A1 0.000148623
*RES
1 *1188:ZN *1203:A1 11.128 
*END

*D_NET *132 0.0020537
*CONN
*I *1200:A1 I *D gf180mcu_fd_sc_mcu7t5v0__nor4_1
*I *1189:Z O *D gf180mcu_fd_sc_mcu7t5v0__xor2_1
*CAP
1 *1200:A1 0.000310687
2 *1189:Z 0.000310687
3 *1200:A1 *1179:A1 0.000242596
4 *1200:A1 *1183:A1 1.15244e-05
5 *1200:A1 *1189:A1 5.87561e-06
6 *1200:A1 *1189:A2 2.6126e-05
7 *1200:A1 *1193:A1 2.60158e-05
8 *1200:A1 *1198:A1 0
9 *1200:A1 *1200:A3 0.00080368
10 *1200:A1 *1201:A4 2.98535e-05
11 *1200:A1 *285:10 0.000272143
12 *1177:A3 *1200:A1 1.45141e-05
*RES
1 *1189:Z *1200:A1 21.344 
*END

*D_NET *133 0.00169509
*CONN
*I *1203:A2 I *D gf180mcu_fd_sc_mcu7t5v0__and4_1
*I *1190:ZN O *D gf180mcu_fd_sc_mcu7t5v0__aoi22_1
*CAP
1 *1203:A2 0.000234733
2 *1190:ZN 0.000234733
3 *1203:A2 *1142:I 0.000512533
4 *1203:A2 *1203:A3 3.42838e-05
5 *1203:A2 *235:46 0.000388757
6 *1203:A2 *250:23 0.000250286
7 *1203:A1 *1203:A2 3.73627e-05
8 *89:25 *1203:A2 2.40328e-06
*RES
1 *1190:ZN *1203:A2 21.648 
*END

*D_NET *134 0.0030381
*CONN
*I *1206:A1 I *D gf180mcu_fd_sc_mcu7t5v0__nor3_1
*I *1191:Z O *D gf180mcu_fd_sc_mcu7t5v0__xor2_1
*CAP
1 *1206:A1 0.00114951
2 *1191:Z 0.00114951
3 *1206:A1 *1197:A1 8.55327e-05
4 *1206:A1 *1201:A2 2.23983e-05
5 *1206:A1 *1201:A4 0.000205297
6 *1206:A1 *1203:A3 3.94624e-05
7 *1206:A1 *1207:A2 0.000317513
8 *1206:A1 *226:30 3.65122e-05
9 *1198:B2 *1206:A1 3.23651e-05
*RES
1 *1191:Z *1206:A1 17.056 
*END

*D_NET *135 0.00324672
*CONN
*I *1200:A2 I *D gf180mcu_fd_sc_mcu7t5v0__nor4_1
*I *1192:Z O *D gf180mcu_fd_sc_mcu7t5v0__xor2_1
*CAP
1 *1200:A2 0.000437853
2 *1192:Z 0.000437853
3 *1200:A2 *1161:A1 0.000963666
4 *1200:A2 *1161:A2 0
5 *1200:A2 *1164:A2 0.000451917
6 *1200:A2 *1176:A1 0.000158886
7 *1200:A2 *1192:A1 5.3266e-05
8 *1200:A2 *1200:A3 6.00599e-05
9 *1200:A2 *1200:A4 3.92048e-05
10 *1200:A2 *224:56 3.7731e-05
11 *1200:A2 *248:14 0
12 *1200:A2 *251:10 0
13 *1177:A2 *1200:A2 0.000343088
14 *1177:A3 *1200:A2 3.04039e-05
15 *1177:A4 *1200:A2 5.19635e-05
16 *1181:A1 *1200:A2 8.95196e-05
17 *1219:A2 *1200:A2 9.13115e-05
*RES
1 *1192:Z *1200:A2 24.232 
*END

*D_NET *136 0.00207443
*CONN
*I *1200:A3 I *D gf180mcu_fd_sc_mcu7t5v0__nor4_1
*I *1193:Z O *D gf180mcu_fd_sc_mcu7t5v0__xor2_1
*CAP
1 *1200:A3 0.000361787
2 *1193:Z 0.000361787
3 *1200:A3 *1189:A2 0.000194624
4 *1200:A3 *248:14 0.000193308
5 *1200:A3 *252:12 2.22657e-05
6 *1200:A3 *285:10 2.22758e-05
7 *1177:A2 *1200:A3 5.76373e-06
8 *1177:A3 *1200:A3 4.8881e-05
9 *1200:A1 *1200:A3 0.00080368
10 *1200:A2 *1200:A3 6.00599e-05
*RES
1 *1193:Z *1200:A3 13.94 
*END

*D_NET *137 0.00393535
*CONN
*I *1203:A3 I *D gf180mcu_fd_sc_mcu7t5v0__and4_1
*I *1194:ZN O *D gf180mcu_fd_sc_mcu7t5v0__aoi22_1
*CAP
1 *1203:A3 0.00128741
2 *1194:ZN 0.00128741
3 *1203:A3 *1149:I 0.000255722
4 *1203:A3 *1199:A2 0
5 *1203:A3 *1201:A3 2.05953e-05
6 *1203:A3 *1202:B1 7.98466e-05
7 *1203:A3 *1203:A4 0.000274252
8 *1203:A3 *1207:A2 6.89444e-05
9 *1203:A3 *1207:A4 3.76302e-05
10 *1203:A3 *226:30 0.000214619
11 *1203:A3 *238:48 6.30226e-05
12 *1194:B1 *1203:A3 0.000193942
13 *1202:A2 *1203:A3 5.76063e-06
14 *1203:A2 *1203:A3 3.42838e-05
15 *1206:A1 *1203:A3 3.94624e-05
16 *88:12 *1203:A3 1.76472e-05
17 *89:25 *1203:A3 0
18 *93:12 *1203:A3 5.48085e-05
*RES
1 *1194:ZN *1203:A3 18.196 
*END

*D_NET *138 0.00849585
*CONN
*I *1200:A4 I *D gf180mcu_fd_sc_mcu7t5v0__nor4_1
*I *1195:Z O *D gf180mcu_fd_sc_mcu7t5v0__xor2_1
*CAP
1 *1200:A4 0.00103647
2 *1195:Z 0.00103647
3 *1200:A4 *1162:A1 1.52094e-05
4 *1200:A4 *1195:A2 0
5 *1200:A4 *1199:A2 0.00021548
6 *1200:A4 *1204:A1 2.2499e-05
7 *1200:A4 *1205:C2 0.0001908
8 *1200:A4 *1206:A2 0.00108425
9 *1200:A4 *1206:A3 0.000476427
10 *1200:A4 *1366:I 5.76749e-06
11 *1200:A4 *168:27 0.000317503
12 *1200:A4 *237:22 0.00053309
13 *1200:A4 *251:10 0.00185423
14 *1200:A4 *251:16 0.000121142
15 *1200:A4 *252:12 5.24869e-05
16 *1177:A3 *1200:A4 8.69929e-05
17 *1181:A1 *1200:A4 4.56489e-05
18 *1187:A2 *1200:A4 1.97234e-05
19 *1187:A3 *1200:A4 0.00092111
20 *1187:A4 *1200:A4 0.00011955
21 *1200:A2 *1200:A4 3.92048e-05
22 *1202:B2 *1200:A4 5.66946e-05
23 *1207:A1 *1200:A4 0
24 *111:12 *1200:A4 0.000245108
*RES
1 *1195:Z *1200:A4 33.96 
*END

*D_NET *139 0.000904152
*CONN
*I *1201:A1 I *D gf180mcu_fd_sc_mcu7t5v0__and4_1
*I *1196:ZN O *D gf180mcu_fd_sc_mcu7t5v0__aoi21_1
*CAP
1 *1201:A1 0.000127716
2 *1196:ZN 0.000127716
3 *1201:A1 *1179:A1 0.00064872
4 *1201:A1 *1198:A1 0
*RES
1 *1196:ZN *1201:A1 19.596 
*END

*D_NET *140 0.00164427
*CONN
*I *1199:C I *D gf180mcu_fd_sc_mcu7t5v0__aoi221_1
*I *1197:Z O *D gf180mcu_fd_sc_mcu7t5v0__xor2_1
*CAP
1 *1199:C 0.000446821
2 *1197:Z 0.000446821
3 *1199:C *1194:B2 1.48677e-05
4 *1199:C *1359:I 1.7474e-05
5 *1199:C *238:48 0.000182096
6 *1199:C *239:14 3.26862e-05
7 *1199:C *241:21 5.856e-06
8 *1199:C *255:14 0
9 *1194:B1 *1199:C 0.000107657
10 *1198:B2 *1199:C 0.00038999
*RES
1 *1197:Z *1199:C 22.104 
*END

*D_NET *141 0.000657417
*CONN
*I *1201:A2 I *D gf180mcu_fd_sc_mcu7t5v0__and4_1
*I *1198:ZN O *D gf180mcu_fd_sc_mcu7t5v0__aoi22_1
*CAP
1 *1201:A2 0.00028679
2 *1198:ZN 0.00028679
3 *1198:A2 *1201:A2 6.14386e-05
4 *1206:A1 *1201:A2 2.23983e-05
*RES
1 *1198:ZN *1201:A2 10.596 
*END

*D_NET *142 0.00151924
*CONN
*I *1201:A3 I *D gf180mcu_fd_sc_mcu7t5v0__and4_1
*I *1199:ZN O *D gf180mcu_fd_sc_mcu7t5v0__aoi221_1
*CAP
1 *1201:A3 0.000390972
2 *1199:ZN 0.000390972
3 *1201:A3 *1178:A2 0
4 *1201:A3 *1179:A1 0.000574802
5 *1201:A3 *1199:A2 0.000141897
6 *1203:A3 *1201:A3 2.05953e-05
*RES
1 *1199:ZN *1201:A3 21.8 
*END

*D_NET *143 0.00396085
*CONN
*I *1201:A4 I *D gf180mcu_fd_sc_mcu7t5v0__and4_1
*I *1200:ZN O *D gf180mcu_fd_sc_mcu7t5v0__nor4_1
*CAP
1 *1201:A4 0.000807796
2 *1200:ZN 0.000807796
3 *1201:A4 *1171:A2 0.00114091
4 *1201:A4 *1179:A1 2.40658e-05
5 *1201:A4 *1183:A2 0.000468622
6 *1201:A4 *226:34 0.000173584
7 *1201:A4 *252:12 4.18327e-05
8 *1201:A4 *289:10 1.5961e-05
9 *1177:A3 *1201:A4 0.00020108
10 *1184:A3 *1201:A4 4.40561e-05
11 *1187:A3 *1201:A4 0
12 *1200:A1 *1201:A4 2.98535e-05
13 *1206:A1 *1201:A4 0.000205297
*RES
1 *1200:ZN *1201:A4 26.056 
*END

*D_NET *144 0.00233438
*CONN
*I *1207:A2 I *D gf180mcu_fd_sc_mcu7t5v0__nand4_1
*I *1201:Z O *D gf180mcu_fd_sc_mcu7t5v0__and4_1
*CAP
1 *1207:A2 0.000665975
2 *1201:Z 0.000665975
3 *1207:A2 *1171:A2 0.00013415
4 *1207:A2 *1199:A2 6.66044e-05
5 *1207:A2 *226:30 1.08266e-05
6 *1187:A3 *1207:A2 0.000350409
7 *1202:A2 *1207:A2 1.3758e-05
8 *1203:A3 *1207:A2 6.89444e-05
9 *1206:A1 *1207:A2 0.000317513
10 *88:12 *1207:A2 4.02265e-05
*RES
1 *1201:Z *1207:A2 23.548 
*END

*D_NET *145 0.00107449
*CONN
*I *1203:A4 I *D gf180mcu_fd_sc_mcu7t5v0__and4_1
*I *1202:ZN O *D gf180mcu_fd_sc_mcu7t5v0__aoi22_1
*CAP
1 *1203:A4 0.00010926
2 *1202:ZN 0.00010926
3 *1203:A4 *1202:B1 7.3227e-05
4 *1203:A4 *250:23 0.000351486
5 *1203:A3 *1203:A4 0.000274252
6 *88:12 *1203:A4 0.000157001
*RES
1 *1202:ZN *1203:A4 10.9 
*END

*D_NET *146 0.000476207
*CONN
*I *1207:A3 I *D gf180mcu_fd_sc_mcu7t5v0__nand4_1
*I *1203:Z O *D gf180mcu_fd_sc_mcu7t5v0__and4_1
*CAP
1 *1207:A3 0.000118497
2 *1203:Z 0.000118497
3 *88:12 *1207:A3 0.000239213
*RES
1 *1203:Z *1207:A3 10.064 
*END

*D_NET *147 0.0020189
*CONN
*I *1206:A2 I *D gf180mcu_fd_sc_mcu7t5v0__nor3_1
*I *1204:ZN O *D gf180mcu_fd_sc_mcu7t5v0__oai22_1
*CAP
1 *1206:A2 5.47601e-05
2 *1204:ZN 5.47601e-05
3 *1206:A2 *1162:A1 1.81333e-05
4 *1206:A2 *1204:A1 8.62306e-05
5 *1206:A2 *251:16 4.71425e-05
6 *1200:A4 *1206:A2 0.00108425
7 *1202:B2 *1206:A2 0.000403764
8 *1204:A2 *1206:A2 0.000269865
*RES
1 *1204:ZN *1206:A2 20.66 
*END

*D_NET *148 0.000671272
*CONN
*I *1206:A3 I *D gf180mcu_fd_sc_mcu7t5v0__nor3_1
*I *1205:ZN O *D gf180mcu_fd_sc_mcu7t5v0__oai222_1
*CAP
1 *1206:A3 1.30514e-05
2 *1205:ZN 1.30514e-05
3 *1187:A3 *1206:A3 0.000168743
4 *1200:A4 *1206:A3 0.000476427
*RES
1 *1205:ZN *1206:A3 19.14 
*END

*D_NET *149 0.0012143
*CONN
*I *1207:A4 I *D gf180mcu_fd_sc_mcu7t5v0__nand4_1
*I *1206:ZN O *D gf180mcu_fd_sc_mcu7t5v0__nor3_1
*CAP
1 *1207:A4 0.000214946
2 *1206:ZN 0.000214946
3 *1207:A4 *235:46 0
4 *1207:A4 *250:23 0.000213178
5 *1181:A1 *1207:A4 0.000505673
6 *1202:B2 *1207:A4 7.93657e-06
7 *1203:A3 *1207:A4 3.76302e-05
8 *89:25 *1207:A4 1.99952e-05
*RES
1 *1206:ZN *1207:A4 20.128 
*END

*D_NET *150 0.00348639
*CONN
*I *1208:A2 I *D gf180mcu_fd_sc_mcu7t5v0__and2_1
*I *1217:A2 I *D gf180mcu_fd_sc_mcu7t5v0__nand3_1
*I *1207:ZN O *D gf180mcu_fd_sc_mcu7t5v0__nand4_1
*CAP
1 *1208:A2 0.000166475
2 *1217:A2 0
3 *1207:ZN 0.000501298
4 *150:8 0.000667773
5 *1208:A2 *1217:A3 4.21332e-05
6 *1208:A2 *153:8 3.16765e-06
7 *150:8 *235:46 0
8 *1187:A2 *150:8 6.38438e-05
9 *1207:A1 *150:8 0.0018191
10 *1217:A1 *1208:A2 0.000117404
11 *1217:A1 *150:8 7.98048e-05
12 *111:12 *1208:A2 1.37792e-05
13 *111:12 *150:8 1.16164e-05
*RES
1 *1207:ZN *150:8 14.548 
2 *150:8 *1217:A2 9 
3 *150:8 *1208:A2 10.14 
*END

*D_NET *151 0.00236679
*CONN
*I *1211:B I *D gf180mcu_fd_sc_mcu7t5v0__aoi21_1
*I *1238:A1 I *D gf180mcu_fd_sc_mcu7t5v0__and4_1
*I *1208:Z O *D gf180mcu_fd_sc_mcu7t5v0__and2_1
*CAP
1 *1211:B 0.00019295
2 *1238:A1 0.00015939
3 *1208:Z 8.2972e-05
4 *151:6 0.000435312
5 *1211:B *1210:A2 0.000222333
6 *1211:B *153:8 0.000382339
7 *1238:A1 *1148:I 0.000374234
8 *1238:A1 *281:102 0.000234461
9 *151:6 *1148:I 0.000154348
10 *151:6 *281:102 9.65242e-05
11 *1210:A1 *1211:B 3.19219e-05
*RES
1 *1208:Z *151:6 5.488 
2 *151:6 *1238:A1 6.78 
3 *151:6 *1211:B 16.008 
*END

*D_NET *152 0.00516788
*CONN
*I *1278:B1 I *D gf180mcu_fd_sc_mcu7t5v0__oai22_1
*I *1211:A2 I *D gf180mcu_fd_sc_mcu7t5v0__aoi21_1
*I *1210:A2 I *D gf180mcu_fd_sc_mcu7t5v0__nand2_1
*I *1209:Z O *D gf180mcu_fd_sc_mcu7t5v0__xor2_1
*CAP
1 *1278:B1 0.000128551
2 *1211:A2 0
3 *1210:A2 7.23159e-05
4 *1209:Z 0.000169121
5 *152:12 0.000352687
6 *152:8 0.000578043
7 *1278:B1 *1272:A1 7.14427e-05
8 *1278:B1 *197:16 9.03992e-05
9 *1278:B1 *240:14 1.02578e-05
10 *1278:B1 *294:10 9.49072e-05
11 *152:8 *197:16 5.26859e-05
12 *152:8 *294:10 0.000131633
13 *152:12 *283:54 0
14 *1168:A2 *152:12 0.000342519
15 *1210:A1 *1210:A2 0.000396904
16 *1211:B *1210:A2 0.000222333
17 *1269:A1 *152:12 0.000226661
18 *109:8 *152:12 0.000804996
19 *109:10 *1210:A2 0.000151957
20 *109:10 *152:12 0.00127047
*RES
1 *1209:Z *152:8 5.868 
2 *152:8 *152:12 9.592 
3 *152:12 *1210:A2 10.292 
4 *152:12 *1211:A2 9 
5 *152:8 *1278:B1 5.792 
*END

*D_NET *153 0.00352183
*CONN
*I *1238:A2 I *D gf180mcu_fd_sc_mcu7t5v0__and4_1
*I *1217:A3 I *D gf180mcu_fd_sc_mcu7t5v0__nand3_1
*I *1210:ZN O *D gf180mcu_fd_sc_mcu7t5v0__nand2_1
*CAP
1 *1238:A2 7.57507e-05
2 *1217:A3 0.000160645
3 *1210:ZN 0.000244789
4 *153:8 0.000481185
5 *1217:A3 *168:27 0.000317494
6 *1238:A2 *1148:I 0.000981926
7 *1238:A2 *168:12 5.76373e-06
8 *1238:A2 *168:27 4.52224e-05
9 *1208:A1 *1217:A3 2.6126e-05
10 *1208:A2 *1217:A3 4.21332e-05
11 *1208:A2 *153:8 3.16765e-06
12 *1211:B *153:8 0.000382339
13 *1236:A1 *1217:A3 7.42484e-05
14 *1236:A1 *1238:A2 0.000681038
*RES
1 *1210:ZN *153:8 11.356 
2 *153:8 *1217:A3 10.52 
3 *153:8 *1238:A2 11.508 
*END

*D_NET *154 0.00127437
*CONN
*I *1216:A2 I *D gf180mcu_fd_sc_mcu7t5v0__nor2_1
*I *1213:A2 I *D gf180mcu_fd_sc_mcu7t5v0__nor2_1
*I *1215:A3 I *D gf180mcu_fd_sc_mcu7t5v0__nor3_1
*I *1212:ZN O *D gf180mcu_fd_sc_mcu7t5v0__nand3_1
*CAP
1 *1216:A2 0.000136807
2 *1213:A2 0
3 *1215:A3 0.000100081
4 *1212:ZN 0.000219261
5 *154:12 0.000100081
6 *154:10 0.000356068
7 *1215:A3 *1266:A2 2.40867e-05
8 *1215:A3 *1271:I 8.18282e-05
9 *1216:A2 *1215:A2 4.37699e-05
10 *1216:A2 *1408:I 6.83457e-05
11 *1216:A2 *261:8 2.71239e-05
12 *154:10 *1215:A2 8.05328e-06
13 *154:10 *1266:A2 8.55327e-05
14 *154:10 *244:78 1.72912e-05
15 *1212:A1 *154:10 6.04444e-06
*RES
1 *1212:ZN *154:10 10.368 
2 *154:10 *154:12 4.5 
3 *154:12 *1215:A3 5.26 
4 *154:12 *1213:A2 4.5 
5 *154:10 *1216:A2 9.988 
*END

*D_NET *155 0.0119758
*CONN
*I *1365:I I *D gf180mcu_fd_sc_mcu7t5v0__dlyb_1
*I *1366:I I *D gf180mcu_fd_sc_mcu7t5v0__dlyb_1
*I *1217:ZN O *D gf180mcu_fd_sc_mcu7t5v0__nand3_1
*CAP
1 *1365:I 0.000845411
2 *1366:I 0.0026877
3 *1217:ZN 0
4 *155:4 0.00353311
5 *1365:I *1233:A2 0.000185617
6 *1365:I *1235:A2 0.000201937
7 *1365:I *1236:A2 0.000167176
8 *1365:I *1342:CLK 0.00034799
9 *1365:I *168:27 0.000162321
10 *1365:I *236:40 0
11 *1365:I *241:39 0
12 *1365:I *242:26 0.000237652
13 *1366:I *1240:A2 0.000375332
14 *1366:I *168:27 0.000456529
15 *1366:I *226:12 0
16 *1366:I *241:39 0.000122309
17 *1366:I *254:12 0.000113472
18 *1170:A1 *1366:I 7.83779e-05
19 *1186:A1 *1366:I 6.68265e-05
20 *1187:A2 *1366:I 0.000307983
21 *1187:A3 *1366:I 0.000193933
22 *1187:A4 *1366:I 0.000232337
23 *1200:A4 *1366:I 5.76749e-06
24 *1207:A1 *1366:I 9.17202e-06
25 *1236:A1 *1365:I 0.000379274
26 *1344:D *1365:I 0.00045346
27 *1357:I *1366:I 3.50062e-05
28 *26:10 *1366:I 0.000777065
*RES
1 *1217:ZN *155:4 4.5 
2 *155:4 *1366:I 35.312 
3 *155:4 *1365:I 13.392 
*END

*D_NET *156 0.000356873
*CONN
*I *1220:A2 I *D gf180mcu_fd_sc_mcu7t5v0__nor2_1
*I *1219:Z O *D gf180mcu_fd_sc_mcu7t5v0__xor2_1
*CAP
1 *1220:A2 0.000178436
2 *1219:Z 0.000178436
3 *1220:A2 *1164:A2 0
*RES
1 *1219:Z *1220:A2 10.064 
*END

*D_NET *157 0.00196799
*CONN
*I *1225:A2 I *D gf180mcu_fd_sc_mcu7t5v0__nor2_1
*I *1223:A2 I *D gf180mcu_fd_sc_mcu7t5v0__nor3_1
*I *1221:Z O *D gf180mcu_fd_sc_mcu7t5v0__and3_1
*CAP
1 *1225:A2 2.5e-07
2 *1223:A2 0
3 *1221:Z 2.66212e-05
4 *157:8 2.68712e-05
5 *1225:A2 *232:10 0.000508189
6 *1225:A2 *276:28 0.000381142
7 *1225:A2 *276:32 0.000158809
8 *157:8 *232:10 0.000437622
9 *157:8 *276:32 0.000428483
*RES
1 *1221:Z *157:8 10.14 
2 *157:8 *1223:A2 9 
3 *157:8 *1225:A2 10.292 
*END

*D_NET *158 0.000930222
*CONN
*I *1223:A3 I *D gf180mcu_fd_sc_mcu7t5v0__nor3_1
*I *1222:ZN O *D gf180mcu_fd_sc_mcu7t5v0__aoi21_1
*CAP
1 *1223:A3 0.00042398
2 *1222:ZN 0.00042398
3 *1223:A3 *1221:A2 1.71121e-05
4 *1223:A3 *276:32 6.51504e-05
*RES
1 *1222:ZN *1223:A3 20.28 
*END

*D_NET *159 0.00762529
*CONN
*I *1227:A2 I *D gf180mcu_fd_sc_mcu7t5v0__xor2_1
*I *1237:A3 I *D gf180mcu_fd_sc_mcu7t5v0__nand4_1
*I *1230:A1 I *D gf180mcu_fd_sc_mcu7t5v0__and2_1
*I *1231:A2 I *D gf180mcu_fd_sc_mcu7t5v0__aoi21_1
*I *1226:A2 I *D gf180mcu_fd_sc_mcu7t5v0__nor3_1
*I *1224:Z O *D gf180mcu_fd_sc_mcu7t5v0__and4_1
*CAP
1 *1227:A2 0
2 *1237:A3 0.00014911
3 *1230:A1 0
4 *1231:A2 0.00011811
5 *1226:A2 6.10222e-05
6 *1224:Z 8.94607e-05
7 *159:38 0.000309297
8 *159:27 0.00126135
9 *159:14 0.00145031
10 *159:8 0.000495701
11 *1226:A2 *1224:A4 0
12 *1226:A2 *1228:A1 0.000915035
13 *1226:A2 *1341:CLK 0.000741951
14 *1231:A2 *1172:A2 0.000552367
15 *1231:A2 *1232:A2 4.04687e-05
16 *1237:A3 *1172:A2 0.000312843
17 *1237:A3 *237:22 3.08902e-05
18 *1237:A3 *276:84 0
19 *159:8 *1224:A4 4.50449e-05
20 *159:8 *231:44 0
21 *159:14 *1188:A2 0
22 *159:14 *1224:A4 0.000305877
23 *159:14 *1228:A1 0
24 *159:14 *1228:A2 2.48822e-05
25 *159:14 *231:44 0
26 *159:27 *1188:A2 0
27 *159:27 *249:20 0
28 *159:38 *1172:A2 0.000683562
29 *159:38 *1232:A2 1.21002e-05
30 *159:38 *163:6 2.59005e-05
31 *159:38 *276:84 0
*RES
1 *1224:Z *159:8 5.26 
2 *159:8 *159:14 7.388 
3 *159:14 *1226:A2 11.356 
4 *159:14 *159:27 9.744 
5 *159:27 *1231:A2 5.944 
6 *159:27 *159:38 1.976 
7 *159:38 *1230:A1 4.5 
8 *159:38 *1237:A3 5.868 
9 *159:8 *1227:A2 4.5 
*END

*D_NET *160 0.000331145
*CONN
*I *1226:A3 I *D gf180mcu_fd_sc_mcu7t5v0__nor3_1
*I *1225:ZN O *D gf180mcu_fd_sc_mcu7t5v0__nor2_1
*CAP
1 *1226:A3 0.000117048
2 *1225:ZN 0.000117048
3 *1226:A3 *1224:A4 8.55242e-05
4 *1226:A3 *1341:CLK 1.15244e-05
*RES
1 *1225:ZN *1226:A3 9.912 
*END

*D_NET *161 0.00054139
*CONN
*I *1228:A2 I *D gf180mcu_fd_sc_mcu7t5v0__nor2_1
*I *1227:Z O *D gf180mcu_fd_sc_mcu7t5v0__xor2_1
*CAP
1 *1228:A2 0.000249787
2 *1227:Z 0.000249787
3 *1228:A2 *1188:A2 1.91917e-06
4 *1228:A2 *1228:A1 1.5015e-05
5 *1228:A2 *1341:CLK 0
6 *159:14 *1228:A2 2.48822e-05
*RES
1 *1227:Z *1228:A2 10.52 
*END

*D_NET *162 0.0010375
*CONN
*I *1237:A4 I *D gf180mcu_fd_sc_mcu7t5v0__nand4_1
*I *1230:A2 I *D gf180mcu_fd_sc_mcu7t5v0__and2_1
*I *1229:Z O *D gf180mcu_fd_sc_mcu7t5v0__and2_1
*CAP
1 *1237:A4 9.06845e-05
2 *1230:A2 0.000183707
3 *1229:Z 0
4 *162:4 0.000274392
5 *1237:A4 *1172:A1 0
6 *1237:A4 *1172:A2 0.000164081
7 *1237:A4 *249:20 0.00032464
*RES
1 *1229:Z *162:4 4.5 
2 *162:4 *1230:A2 14.336 
3 *162:4 *1237:A4 5.716 
*END

*D_NET *163 0.00315624
*CONN
*I *1233:A2 I *D gf180mcu_fd_sc_mcu7t5v0__nand2_1
*I *1234:A2 I *D gf180mcu_fd_sc_mcu7t5v0__xnor2_1
*I *1232:A2 I *D gf180mcu_fd_sc_mcu7t5v0__nor3_1
*I *1230:Z O *D gf180mcu_fd_sc_mcu7t5v0__and2_1
*CAP
1 *1233:A2 0.000254806
2 *1234:A2 0.000542326
3 *1232:A2 0.000444833
4 *1230:Z 0.000110681
5 *163:6 0.000843034
6 *1232:A2 *1232:A3 0
7 *1232:A2 *235:25 0
8 *1232:A2 *276:24 9.58397e-05
9 *1232:A2 *276:84 0.000224203
10 *1233:A2 *236:21 0.000173286
11 *1234:A2 *236:12 9.52854e-05
12 *163:6 *276:84 0.000107858
13 *1231:A2 *1232:A2 4.04687e-05
14 *1365:I *1233:A2 0.000185617
15 *159:38 *1232:A2 1.21002e-05
16 *159:38 *163:6 2.59005e-05
*RES
1 *1230:Z *163:6 5.488 
2 *163:6 *1232:A2 7.996 
3 *163:6 *1234:A2 15.552 
4 *1234:A2 *1233:A2 11.356 
*END

*D_NET *164 0.000566616
*CONN
*I *1232:A3 I *D gf180mcu_fd_sc_mcu7t5v0__nor3_1
*I *1231:ZN O *D gf180mcu_fd_sc_mcu7t5v0__aoi21_1
*CAP
1 *1232:A3 0.000147015
2 *1231:ZN 0.000147015
3 *1232:A3 *1172:A2 0.000201027
4 *1232:A3 *235:6 4.06693e-05
5 *1232:A3 *235:25 3.08902e-05
6 *1232:A3 *276:24 0
7 *1232:A2 *1232:A3 0
*RES
1 *1231:ZN *1232:A3 10.216 
*END

*D_NET *165 0.000533441
*CONN
*I *1236:A2 I *D gf180mcu_fd_sc_mcu7t5v0__nand2_1
*I *1233:ZN O *D gf180mcu_fd_sc_mcu7t5v0__nand2_1
*CAP
1 *1236:A2 0.000167687
2 *1233:ZN 0.000167687
3 *1236:A2 *236:40 0
4 *1236:A1 *1236:A2 3.08902e-05
5 *1365:I *1236:A2 0.000167176
*RES
1 *1233:ZN *1236:A2 10.14 
*END

*D_NET *166 0.000834351
*CONN
*I *1235:A2 I *D gf180mcu_fd_sc_mcu7t5v0__nor2_1
*I *1234:ZN O *D gf180mcu_fd_sc_mcu7t5v0__xnor2_1
*CAP
1 *1235:A2 0.000148123
2 *1234:ZN 0.000148123
3 *1235:A2 *1343:CLK 1.15275e-05
4 *1343:D *1235:A2 0.00032464
5 *1365:I *1235:A2 0.000201937
*RES
1 *1234:ZN *1235:A2 10.748 
*END

*D_NET *167 0.000355972
*CONN
*I *1238:A3 I *D gf180mcu_fd_sc_mcu7t5v0__and4_1
*I *1236:ZN O *D gf180mcu_fd_sc_mcu7t5v0__nand2_1
*CAP
1 *1238:A3 0.000137953
2 *1236:ZN 0.000137953
3 *1238:A3 *168:12 3.00745e-05
4 *1238:A3 *237:14 1.78413e-05
5 *1236:A1 *1238:A3 3.21504e-05
*RES
1 *1236:ZN *1238:A3 18.988 
*END

*D_NET *168 0.016792
*CONN
*I *1240:A2 I *D gf180mcu_fd_sc_mcu7t5v0__xor2_1
*I *1251:A1 I *D gf180mcu_fd_sc_mcu7t5v0__nor2_1
*I *1257:A1 I *D gf180mcu_fd_sc_mcu7t5v0__nor3_1
*I *1247:A1 I *D gf180mcu_fd_sc_mcu7t5v0__nor2_1
*I *1239:A2 I *D gf180mcu_fd_sc_mcu7t5v0__nor2_1
*I *1243:A3 I *D gf180mcu_fd_sc_mcu7t5v0__nor3_1
*I *1238:A4 I *D gf180mcu_fd_sc_mcu7t5v0__and4_1
*I *1237:ZN O *D gf180mcu_fd_sc_mcu7t5v0__nand4_1
*CAP
1 *1240:A2 0.000400711
2 *1251:A1 0.00021687
3 *1257:A1 7.29171e-05
4 *1247:A1 0
5 *1239:A2 0
6 *1243:A3 0
7 *1238:A4 0
8 *1237:ZN 0.000417718
9 *168:66 0.000724485
10 *168:55 0.00085529
11 *168:42 0.000606268
12 *168:35 0.000675874
13 *168:27 0.00196151
14 *168:12 0.00148832
15 *1240:A2 *1170:A2 7.98466e-05
16 *1240:A2 *254:12 0.000805973
17 *1251:A1 *1251:A2 2.74825e-05
18 *1251:A1 *1256:A1 4.68103e-05
19 *1251:A1 *1257:A3 0.000300828
20 *1251:A1 *182:12 0
21 *1251:A1 *226:22 5.30148e-05
22 *1251:A1 *226:30 0.000371789
23 *1251:A1 *227:6 1.52768e-05
24 *1257:A1 *1257:A2 7.2647e-05
25 *1257:A1 *225:24 1.18942e-05
26 *168:12 *1148:I 1.43775e-05
27 *168:12 *1233:A1 0.000342528
28 *168:12 *1237:A1 0.000523951
29 *168:12 *236:23 0.00020862
30 *168:12 *237:14 0.000162909
31 *168:12 *242:26 0.000307983
32 *168:27 *1170:A2 0.00063443
33 *168:27 *1185:A1 1.15275e-05
34 *168:27 *1195:A2 0.000203975
35 *168:27 *242:26 0.000338856
36 *168:27 *254:12 2.23477e-05
37 *168:35 *239:10 0.00130475
38 *168:35 *239:12 0.000510921
39 *168:42 *1363:I 2.40328e-06
40 *168:42 *243:71 2.2086e-05
41 *168:55 *1242:A2 5.76373e-06
42 *168:55 *1245:A2 0
43 *168:55 *243:71 0
44 *168:66 *1245:A2 0
45 *168:66 *1246:A2 9.30087e-05
46 *168:66 *1257:A2 0.000126956
47 *168:66 *225:16 1.54006e-05
48 *168:66 *225:18 1.40542e-05
49 *168:66 *225:24 5.94709e-06
50 *168:66 *243:71 0
51 *1170:A1 *168:27 1.3758e-05
52 *1185:A2 *168:27 0.000310587
53 *1186:A2 *168:27 4.50449e-05
54 *1187:A4 *168:27 0.000214647
55 *1198:B2 *168:35 1.58969e-05
56 *1198:B2 *168:42 9.17202e-06
57 *1200:A4 *168:27 0.000317503
58 *1208:A1 *168:27 4.98138e-05
59 *1217:A3 *168:27 0.000317494
60 *1236:A1 *168:12 0
61 *1236:A1 *168:27 0.000140959
62 *1238:A2 *168:12 5.76373e-06
63 *1238:A2 *168:27 4.52224e-05
64 *1238:A3 *168:12 3.00745e-05
65 *1239:A1 *168:42 0.00010198
66 *1243:A1 *168:42 2.96621e-05
67 *1365:I *168:27 0.000162321
68 *1366:I *1240:A2 0.000375332
69 *1366:I *168:27 0.000456529
70 *130:8 *168:27 7.195e-05
*RES
1 *1237:ZN *168:12 17.756 
2 *168:12 *1238:A4 4.5 
3 *168:12 *168:27 12.236 
4 *168:27 *168:35 13.864 
5 *168:35 *1243:A3 4.5 
6 *168:35 *168:42 1.292 
7 *168:42 *1239:A2 4.5 
8 *168:42 *168:55 2.736 
9 *168:55 *1247:A1 4.5 
10 *168:55 *168:66 7.844 
11 *168:66 *1257:A1 9.684 
12 *168:66 *1251:A1 11.204 
13 *168:27 *1240:A2 9.744 
*END

*D_NET *169 0.000153749
*CONN
*I *1242:A2 I *D gf180mcu_fd_sc_mcu7t5v0__nor2_1
*I *1239:ZN O *D gf180mcu_fd_sc_mcu7t5v0__nor2_1
*CAP
1 *1242:A2 7.39927e-05
2 *1239:ZN 7.39927e-05
3 *1243:A1 *1242:A2 0
4 *168:55 *1242:A2 5.76373e-06
*RES
1 *1239:ZN *1242:A2 9.532 
*END

*D_NET *170 0.000553376
*CONN
*I *1241:A2 I *D gf180mcu_fd_sc_mcu7t5v0__nor2_1
*I *1240:Z O *D gf180mcu_fd_sc_mcu7t5v0__xor2_1
*CAP
1 *1241:A2 7.53075e-05
2 *1240:Z 7.53075e-05
3 *1241:A2 *1345:CLK 0.000141897
4 *1241:A2 *254:12 5.14116e-06
5 *1345:D *1241:A2 0.000255722
*RES
1 *1240:Z *1241:A2 10.064 
*END

*D_NET *171 0.000268953
*CONN
*I *1244:A2 I *D gf180mcu_fd_sc_mcu7t5v0__nor3_1
*I *1242:ZN O *D gf180mcu_fd_sc_mcu7t5v0__nor2_1
*CAP
1 *1244:A2 0.0001179
2 *1242:ZN 0.0001179
3 *1244:A2 *172:14 3.31536e-05
4 *1244:A2 *243:56 0
*RES
1 *1242:ZN *1244:A2 18.836 
*END

*D_NET *172 0.0020086
*CONN
*I *1245:A2 I *D gf180mcu_fd_sc_mcu7t5v0__nor2_1
*I *1244:A3 I *D gf180mcu_fd_sc_mcu7t5v0__nor3_1
*I *1243:ZN O *D gf180mcu_fd_sc_mcu7t5v0__nor3_1
*CAP
1 *1245:A2 0.000417466
2 *1244:A3 0
3 *1243:ZN 0.000258242
4 *172:14 0.000675708
5 *1245:A2 *175:8 0
6 *1245:A2 *276:84 3.99555e-05
7 *1245:A2 *276:93 0.000210489
8 *172:14 *1242:A1 4.89079e-05
9 *172:14 *243:56 0.000180841
10 *172:14 *276:84 7.24052e-05
11 *1239:A1 *172:14 6.15455e-05
12 *1243:A1 *172:14 9.88736e-06
13 *1244:A2 *172:14 3.31536e-05
14 *168:55 *1245:A2 0
15 *168:66 *1245:A2 0
*RES
1 *1243:ZN *172:14 15.856 
2 *172:14 *1244:A3 4.5 
3 *172:14 *1245:A2 7.464 
*END

*D_NET *173 0.000379581
*CONN
*I *1248:A2 I *D gf180mcu_fd_sc_mcu7t5v0__nor3_1
*I *1245:ZN O *D gf180mcu_fd_sc_mcu7t5v0__nor2_1
*CAP
1 *1248:A2 0.000115417
2 *1245:ZN 0.000115417
3 *1248:A2 *225:10 9.58397e-05
4 *1248:A2 *276:93 5.29084e-05
*RES
1 *1245:ZN *1248:A2 10.064 
*END

*D_NET *174 0.000327169
*CONN
*I *1247:A2 I *D gf180mcu_fd_sc_mcu7t5v0__nor2_1
*I *1246:ZN O *D gf180mcu_fd_sc_mcu7t5v0__nand3_1
*CAP
1 *1247:A2 9.09873e-05
2 *1246:ZN 9.09873e-05
3 *1247:A2 *1246:A2 7.83779e-05
4 *1247:A2 *175:8 6.68164e-05
5 *1247:A2 *243:71 0
*RES
1 *1246:ZN *1247:A2 9.684 
*END

*D_NET *175 0.00212046
*CONN
*I *1248:A3 I *D gf180mcu_fd_sc_mcu7t5v0__nor3_1
*I *1249:A2 I *D gf180mcu_fd_sc_mcu7t5v0__nor2_1
*I *1247:ZN O *D gf180mcu_fd_sc_mcu7t5v0__nor2_1
*CAP
1 *1248:A3 0.000129232
2 *1249:A2 0.000338575
3 *1247:ZN 0.000319559
4 *175:8 0.000787366
5 *1248:A3 *1348:RN 0
6 *1248:A3 *284:67 0
7 *1249:A2 *1348:RN 0
8 *1249:A2 *225:10 0
9 *1249:A2 *226:22 0.000306482
10 *1249:A2 *238:35 0
11 *1249:A2 *284:67 0
12 *175:8 *1246:A2 5.09739e-06
13 *175:8 *225:10 0.000104171
14 *175:8 *225:16 3.83835e-06
15 *175:8 *226:22 0
16 *175:8 *238:20 2.96621e-05
17 *175:8 *238:35 2.96621e-05
18 *1245:A2 *175:8 0
19 *1247:A2 *175:8 6.68164e-05
*RES
1 *1247:ZN *175:8 11.204 
2 *175:8 *1249:A2 11.584 
3 *175:8 *1248:A3 9.836 
*END

*D_NET *176 0.000758325
*CONN
*I *1252:A2 I *D gf180mcu_fd_sc_mcu7t5v0__nor3_1
*I *1249:ZN O *D gf180mcu_fd_sc_mcu7t5v0__nor2_1
*CAP
1 *1252:A2 0.0003007
2 *1249:ZN 0.0003007
3 *1252:A2 *277:8 4.97712e-06
4 *1252:A2 *277:18 0.000151949
*RES
1 *1249:ZN *1252:A2 19.824 
*END

*D_NET *177 0.00145024
*CONN
*I *1251:A2 I *D gf180mcu_fd_sc_mcu7t5v0__nor2_1
*I *1257:A2 I *D gf180mcu_fd_sc_mcu7t5v0__nor3_1
*I *1250:ZN O *D gf180mcu_fd_sc_mcu7t5v0__nand4_1
*CAP
1 *1251:A2 0.000164259
2 *1257:A2 0.000153996
3 *1250:ZN 0
4 *177:4 0.000318255
5 *1251:A2 *1250:A2 5.08971e-06
6 *1251:A2 *1250:A3 7.83779e-05
7 *1251:A2 *226:22 0.000241516
8 *1251:A2 *226:30 8.57998e-05
9 *1251:A2 *238:35 9.61205e-06
10 *1251:A2 *238:37 3.83835e-06
11 *1251:A2 *239:33 7.24161e-06
12 *1257:A2 *225:24 7.65224e-05
13 *1257:A2 *226:30 4.63109e-05
14 *1257:A2 *239:33 3.23347e-05
15 *1251:A1 *1251:A2 2.74825e-05
16 *1257:A1 *1257:A2 7.2647e-05
17 *168:66 *1257:A2 0.000126956
*RES
1 *1250:ZN *177:4 4.5 
2 *177:4 *1257:A2 15.02 
3 *177:4 *1251:A2 6.02 
*END

*D_NET *178 0.00354084
*CONN
*I *1252:A3 I *D gf180mcu_fd_sc_mcu7t5v0__nor3_1
*I *1253:A2 I *D gf180mcu_fd_sc_mcu7t5v0__xnor2_1
*I *1255:A2 I *D gf180mcu_fd_sc_mcu7t5v0__aoi21_1
*I *1251:ZN O *D gf180mcu_fd_sc_mcu7t5v0__nor2_1
*CAP
1 *1252:A3 0.000276213
2 *1253:A2 0.000221114
3 *1255:A2 0.000146229
4 *1251:ZN 0
5 *178:8 0.000626909
6 *178:4 0.000535778
7 *1252:A3 *227:6 0.000142175
8 *1252:A3 *277:18 1.52768e-05
9 *1253:A2 *1253:A1 0.000718147
10 *1253:A2 *1254:A1 4.2318e-06
11 *1255:A2 *182:12 5.01187e-05
12 *1255:A2 *227:21 2.59502e-05
13 *1255:A2 *284:75 0
14 *178:8 *182:12 0.000367726
15 *178:8 *227:21 0.00041097
16 *178:8 *284:67 0
*RES
1 *1251:ZN *178:4 4.5 
2 *178:4 *178:8 8.224 
3 *178:8 *1255:A2 9.912 
4 *178:8 *1253:A2 11.052 
5 *178:4 *1252:A3 6.4 
*END

*D_NET *179 0.000709709
*CONN
*I *1254:A2 I *D gf180mcu_fd_sc_mcu7t5v0__nor2_1
*I *1253:ZN O *D gf180mcu_fd_sc_mcu7t5v0__xnor2_1
*CAP
1 *1254:A2 0.000207648
2 *1253:ZN 0.000207648
3 *1254:A2 *1254:A1 0.000273898
4 *1349:D *1254:A2 2.05156e-05
*RES
1 *1253:ZN *1254:A2 10.748 
*END

*D_NET *180 0.000558245
*CONN
*I *1258:A2 I *D gf180mcu_fd_sc_mcu7t5v0__nor3_1
*I *1255:ZN O *D gf180mcu_fd_sc_mcu7t5v0__aoi21_1
*CAP
1 *1258:A2 0.000204048
2 *1255:ZN 0.000204048
3 *1258:A2 *1253:A1 0.000103847
4 *1350:D *1258:A2 4.63008e-05
*RES
1 *1255:ZN *1258:A2 10.444 
*END

*D_NET *181 0.000506106
*CONN
*I *1257:A3 I *D gf180mcu_fd_sc_mcu7t5v0__nor3_1
*I *1256:ZN O *D gf180mcu_fd_sc_mcu7t5v0__nand2_1
*CAP
1 *1257:A3 8.2138e-05
2 *1256:ZN 8.2138e-05
3 *1257:A3 *1256:A2 3.14377e-05
4 *1257:A3 *182:12 9.56442e-06
5 *1251:A1 *1257:A3 0.000300828
*RES
1 *1256:ZN *1257:A3 9.836 
*END

*D_NET *182 0.00558494
*CONN
*I *1258:A3 I *D gf180mcu_fd_sc_mcu7t5v0__nor3_1
*I *1259:A2 I *D gf180mcu_fd_sc_mcu7t5v0__nor2_1
*I *1260:A2 I *D gf180mcu_fd_sc_mcu7t5v0__and2_1
*I *1257:ZN O *D gf180mcu_fd_sc_mcu7t5v0__nor3_1
*CAP
1 *1258:A3 0
2 *1259:A2 0.000163129
3 *1260:A2 0.000164282
4 *1257:ZN 0.000853007
5 *182:14 0.000750207
6 *182:12 0.0012758
7 *1259:A2 *1259:A1 0.000171927
8 *1259:A2 *1263:C 1.15275e-05
9 *1259:A2 *229:12 2.96621e-05
10 *1260:A2 *1261:A3 0.00020108
11 *1260:A2 *1262:A2 3.08902e-05
12 *1260:A2 *1263:C 0.000193933
13 *1260:A2 *229:10 0.000145096
14 *1260:A2 *277:20 0
15 *182:12 *1256:A1 6.0086e-05
16 *182:12 *1256:A2 5.37034e-05
17 *182:12 *1349:RN 7.87702e-05
18 *182:12 *227:6 8.34306e-05
19 *182:12 *277:18 0
20 *182:12 *284:75 0
21 *182:14 *229:10 0.000891001
22 *182:14 *277:18 0
23 *182:14 *277:20 0
24 *182:14 *284:75 0
25 *1251:A1 *182:12 0
26 *1255:A2 *182:12 5.01187e-05
27 *1257:A3 *182:12 9.56442e-06
28 *178:8 *182:12 0.000367726
*RES
1 *1257:ZN *182:12 15.46 
2 *182:12 *182:14 3.268 
3 *182:14 *1260:A2 10.52 
4 *182:14 *1259:A2 10.292 
5 *182:12 *1258:A3 9 
*END

*D_NET *183 0.000485187
*CONN
*I *1261:A2 I *D gf180mcu_fd_sc_mcu7t5v0__nor3_1
*I *1259:ZN O *D gf180mcu_fd_sc_mcu7t5v0__nor2_1
*CAP
1 *1261:A2 6.34485e-05
2 *1259:ZN 6.34485e-05
3 *1261:A2 *1261:A1 0.000206333
4 *1261:A2 *277:20 0.000151957
*RES
1 *1259:ZN *1261:A2 18.836 
*END

*D_NET *184 0.00230738
*CONN
*I *1261:A3 I *D gf180mcu_fd_sc_mcu7t5v0__nor3_1
*I *1262:A2 I *D gf180mcu_fd_sc_mcu7t5v0__nor2_1
*I *1263:A2 I *D gf180mcu_fd_sc_mcu7t5v0__aoi211_1
*I *1260:Z O *D gf180mcu_fd_sc_mcu7t5v0__and2_1
*CAP
1 *1261:A3 0.000167983
2 *1262:A2 7.03223e-05
3 *1263:A2 0.000313223
4 *1260:Z 0
5 *184:15 0.000287511
6 *184:4 0.000362429
7 *1261:A3 *1263:C 0.000246993
8 *1261:A3 *1351:CLK 0
9 *1262:A2 *1263:C 0.000224654
10 *1263:A2 *1262:A1 0.000118105
11 *1263:A2 *1263:C 0
12 *1263:A2 *1351:CLK 0.000119234
13 *1263:A2 *1352:CLK 9.026e-05
14 *1263:A2 *230:12 1.02578e-05
15 *1260:A2 *1261:A3 0.00020108
16 *1260:A2 *1262:A2 3.08902e-05
17 *1351:D *1261:A3 6.44359e-05
*RES
1 *1260:Z *184:4 4.5 
2 *184:4 *1263:A2 7.54 
3 *184:4 *184:15 0.38 
4 *184:15 *1262:A2 6.02 
5 *184:15 *1261:A3 6.4 
*END

*D_NET *185 0.000410991
*CONN
*I *1263:B I *D gf180mcu_fd_sc_mcu7t5v0__aoi211_1
*I *1262:ZN O *D gf180mcu_fd_sc_mcu7t5v0__nor2_1
*CAP
1 *1263:B 3.64036e-05
2 *1262:ZN 3.64036e-05
3 *1263:B *1262:A1 0.00026286
4 *1263:B *1263:C 7.53241e-05
*RES
1 *1262:ZN *1263:B 9.684 
*END

*D_NET *186 0.00332833
*CONN
*I *1320:A1 I *D gf180mcu_fd_sc_mcu7t5v0__oai21_1
*I *1269:A2 I *D gf180mcu_fd_sc_mcu7t5v0__nor3_1
*I *1267:Z O *D gf180mcu_fd_sc_mcu7t5v0__xor2_1
*CAP
1 *1320:A1 4.77036e-05
2 *1269:A2 0.000370564
3 *1267:Z 0.000121856
4 *186:10 0.000540124
5 *1269:A2 *1266:A2 5.02235e-05
6 *1269:A2 *1269:A3 0.000255714
7 *1269:A2 *1319:A3 0.000460684
8 *1269:A2 *1320:B 0.000147305
9 *1320:A1 *253:12 0.000269857
10 *1320:A1 *295:12 0
11 *186:10 *244:67 0.000151949
12 *186:10 *244:107 0.000103114
13 *186:10 *253:12 0.000380912
14 *186:10 *295:12 0
15 *186:10 *295:23 0.000110823
16 *1356:D *1269:A2 0.000317503
*RES
1 *1267:Z *186:10 10.672 
2 *186:10 *1269:A2 12.952 
3 *186:10 *1320:A1 9.684 
*END

*D_NET *187 0.00106421
*CONN
*I *1269:A3 I *D gf180mcu_fd_sc_mcu7t5v0__nor3_1
*I *1268:ZN O *D gf180mcu_fd_sc_mcu7t5v0__nand2_1
*CAP
1 *1269:A3 0.000176808
2 *1268:ZN 0.000176808
3 *1269:A3 *1266:A2 0.000111858
4 *1269:A3 *244:78 2.22758e-05
5 *1266:A1 *1269:A3 0.000196485
6 *1268:A1 *1269:A3 9.26705e-05
7 *1269:A1 *1269:A3 3.15948e-05
8 *1269:A2 *1269:A3 0.000255714
*RES
1 *1268:ZN *1269:A3 20.052 
*END

*D_NET *188 0.00053706
*CONN
*I *1270:A2 I *D gf180mcu_fd_sc_mcu7t5v0__oai21_1
*I *1269:ZN O *D gf180mcu_fd_sc_mcu7t5v0__nor3_1
*CAP
1 *1270:A2 0.000207467
2 *1269:ZN 0.000207467
3 *1270:A2 *1266:A2 0.000111867
4 *1270:A2 *1271:I 1.02578e-05
5 *1270:A2 *284:31 0
*RES
1 *1269:ZN *1270:A2 10.52 
*END

*D_NET *189 0.00200134
*CONN
*I *1271:I I *D gf180mcu_fd_sc_mcu7t5v0__clkinv_1
*I *1270:ZN O *D gf180mcu_fd_sc_mcu7t5v0__oai21_1
*CAP
1 *1271:I 0.000414559
2 *1270:ZN 0.000414559
3 *1271:I *1266:A2 0
4 *1271:I *1270:A1 0.000392852
5 *1271:I *1398:I 0.000134564
6 *1271:I *291:14 9.26705e-05
7 *1271:I *291:21 0.000460051
8 *1215:A3 *1271:I 8.18282e-05
9 *1270:A2 *1271:I 1.02578e-05
*RES
1 *1270:ZN *1271:I 13.256 
*END

*D_NET *190 0.00110161
*CONN
*I *1282:B I *D gf180mcu_fd_sc_mcu7t5v0__aoi21_1
*I *1272:ZN O *D gf180mcu_fd_sc_mcu7t5v0__nor2_1
*CAP
1 *1282:B 0.000189874
2 *1272:ZN 0.000189874
3 *1282:B *197:16 0
4 *1282:B *197:24 3.08902e-05
5 *42:61 *1282:B 2.74661e-05
6 *110:25 *1282:B 0.000663505
*RES
1 *1272:ZN *1282:B 10.9 
*END

*D_NET *191 0.000909028
*CONN
*I *1275:A2 I *D gf180mcu_fd_sc_mcu7t5v0__nand3_1
*I *1273:ZN O *D gf180mcu_fd_sc_mcu7t5v0__xnor2_1
*CAP
1 *1275:A2 0.000160139
2 *1273:ZN 0.000160139
3 *1275:A2 *1274:A2 0.000262012
4 *1275:A2 *1313:A2 6.92316e-05
5 *1275:A2 *193:10 0.000177701
6 *1275:A2 *282:23 0
7 *1275:A2 *292:41 7.98048e-05
*RES
1 *1273:ZN *1275:A2 19.748 
*END

*D_NET *192 0.000127914
*CONN
*I *1275:A3 I *D gf180mcu_fd_sc_mcu7t5v0__nand3_1
*I *1274:ZN O *D gf180mcu_fd_sc_mcu7t5v0__xnor2_1
*CAP
1 *1275:A3 3.63058e-05
2 *1274:ZN 3.63058e-05
3 *1275:A3 *1313:A2 5.53027e-05
*RES
1 *1274:ZN *1275:A3 9.38 
*END

*D_NET *193 0.00360391
*CONN
*I *1277:A1 I *D gf180mcu_fd_sc_mcu7t5v0__and2_1
*I *1313:A1 I *D gf180mcu_fd_sc_mcu7t5v0__aoi21_1
*I *1275:ZN O *D gf180mcu_fd_sc_mcu7t5v0__nand3_1
*CAP
1 *1277:A1 0.000596987
2 *1313:A1 0.000195902
3 *1275:ZN 0.000226765
4 *193:10 0.00101965
5 *1277:A1 *1273:A1 0.000317494
6 *1277:A1 *1274:A2 1.1971e-05
7 *1277:A1 *1370:I 1.52691e-05
8 *1313:A1 *1273:A1 6.80238e-06
9 *1313:A1 *1274:A1 8.17271e-05
10 *1313:A1 *1274:A2 0.000147313
11 *1313:A1 *1313:A2 0.000250449
12 *1313:A1 *245:6 9.58397e-05
13 *193:10 *1274:A2 8.59272e-06
14 *193:10 *1313:A2 3.7253e-05
15 *193:10 *282:59 0
16 *1273:A2 *193:10 1.31444e-05
17 *1275:A1 *193:10 5.1289e-05
18 *1275:A2 *193:10 0.000177701
19 *1296:A1 *1277:A1 0.000339493
20 *65:12 *193:10 1.02578e-05
*RES
1 *1275:ZN *193:10 10.672 
2 *193:10 *1313:A1 11.356 
3 *193:10 *1277:A1 13.712 
*END

*D_NET *194 0.00504932
*CONN
*I *1277:A2 I *D gf180mcu_fd_sc_mcu7t5v0__and2_1
*I *1290:A2 I *D gf180mcu_fd_sc_mcu7t5v0__nand2_1
*I *1280:A2 I *D gf180mcu_fd_sc_mcu7t5v0__nand2_1
*I *1276:ZN O *D gf180mcu_fd_sc_mcu7t5v0__nor3_1
*CAP
1 *1277:A2 0.000303771
2 *1290:A2 0
3 *1280:A2 0.000279878
4 *1276:ZN 0.000111709
5 *194:19 0.00116828
6 *194:10 0.00125609
7 *1277:A2 *1279:A1 7.54445e-06
8 *1277:A2 *205:10 7.18607e-05
9 *1280:A2 *262:14 0.000191268
10 *194:19 *1141:I 8.49277e-05
11 *194:19 *1165:A2 4.80982e-06
12 *194:19 *1166:A2 0
13 *194:19 *1278:A1 0.000385416
14 *194:19 *197:16 0
15 *194:19 *205:10 1.02578e-05
16 *194:19 *262:14 0.000207163
17 *1159:A2 *194:19 0
18 *1165:A1 *1277:A2 0.000671518
19 *1165:A1 *194:19 2.17248e-05
20 *1209:A1 *194:19 0.000200101
21 *1278:A2 *194:19 2.2165e-05
22 *1296:A1 *1277:A2 2.976e-05
23 *41:12 *1280:A2 0
24 *41:12 *194:19 0
25 *41:16 *194:10 2.10727e-05
26 *41:55 *194:10 0
*RES
1 *1276:ZN *194:10 14.184 
2 *194:10 *1280:A2 6.4 
3 *194:10 *194:19 6.764 
4 *194:19 *1290:A2 4.5 
5 *194:19 *1277:A2 7.54 
*END

*D_NET *195 0.00152456
*CONN
*I *1279:A1 I *D gf180mcu_fd_sc_mcu7t5v0__nor2_1
*I *1310:A2 I *D gf180mcu_fd_sc_mcu7t5v0__and2_1
*I *1277:Z O *D gf180mcu_fd_sc_mcu7t5v0__and2_1
*CAP
1 *1279:A1 0.000191279
2 *1310:A2 4.69519e-05
3 *1277:Z 1.78371e-05
4 *195:8 0.000256068
5 *1279:A1 *1310:A1 0.000387846
6 *1310:A2 *1311:I1 0.000269857
7 *1310:A2 *253:12 5.14406e-05
8 *195:8 *1311:I1 0.000151957
9 *195:8 *253:12 2.53131e-05
10 *1165:A1 *1279:A1 0.000118466
11 *1277:A2 *1279:A1 7.54445e-06
*RES
1 *1277:Z *195:8 9.38 
2 *195:8 *1310:A2 9.684 
3 *195:8 *1279:A1 11.204 
*END

*D_NET *196 0.000401262
*CONN
*I *1279:A2 I *D gf180mcu_fd_sc_mcu7t5v0__nor2_1
*I *1278:ZN O *D gf180mcu_fd_sc_mcu7t5v0__oai22_1
*CAP
1 *1279:A2 0.000127192
2 *1278:ZN 0.000127192
3 *1279:A2 *1165:A2 4.2318e-06
4 *1279:A2 *197:16 0.000116768
5 *1279:A2 *240:14 2.5879e-05
*RES
1 *1278:ZN *1279:A2 9.912 
*END

*D_NET *197 0.00881596
*CONN
*I *1282:A1 I *D gf180mcu_fd_sc_mcu7t5v0__aoi21_1
*I *1289:A1 I *D gf180mcu_fd_sc_mcu7t5v0__aoi21_1
*I *1288:A2 I *D gf180mcu_fd_sc_mcu7t5v0__oai21_1
*I *1285:S I *D gf180mcu_fd_sc_mcu7t5v0__mux2_2
*I *1279:ZN O *D gf180mcu_fd_sc_mcu7t5v0__nor2_1
*CAP
1 *1282:A1 0
2 *1289:A1 0
3 *1288:A2 0.000111758
4 *1285:S 0.000102248
5 *1279:ZN 0.0011355
6 *197:39 0.00074181
7 *197:24 0.000950864
8 *197:16 0.00135406
9 *1285:S *1283:A2 6.21393e-05
10 *1285:S *1285:I1 0.000146053
11 *1288:A2 *1289:A2 1.02578e-05
12 *1288:A2 *1289:B 0.000226393
13 *1288:A2 *1323:CLK 0
14 *1288:A2 *244:80 0
15 *197:16 *1165:A2 0.000110022
16 *197:16 *1272:A1 3.51062e-05
17 *197:16 *1369:I 9.12287e-05
18 *197:16 *240:14 0
19 *197:16 *294:10 5.69422e-05
20 *197:24 *1283:A2 0.000428867
21 *197:24 *1284:B 0
22 *197:24 *1285:I1 6.50663e-05
23 *197:39 *1280:A1 5.63729e-05
24 *197:39 *1281:A1 4.16296e-05
25 *197:39 *1283:A2 8.15645e-05
26 *197:39 *1284:B 0
27 *197:39 *1289:A2 0.000148879
28 *197:39 *258:8 3.83879e-05
29 *1159:A1 *197:16 1.52768e-05
30 *1159:A2 *197:16 5.98923e-05
31 *1209:A1 *197:16 3.26601e-05
32 *1209:A2 *197:16 0.000314174
33 *1278:B1 *197:16 9.03992e-05
34 *1279:A2 *197:16 0.000116768
35 *1282:B *197:16 0
36 *1282:B *197:24 3.08902e-05
37 *1285:I0 *1285:S 0.000123777
38 *1285:I0 *197:24 2.22758e-05
39 *1285:I0 *197:39 9.42485e-06
40 *1288:A1 *1288:A2 0.000305671
41 *41:12 *197:16 0.000968671
42 *42:14 *197:39 9.77378e-05
43 *42:61 *197:24 7.88515e-05
44 *43:14 *1288:A2 2.05156e-05
45 *43:14 *197:39 0.000138621
46 *110:10 *197:16 0.000342519
47 *110:25 *197:16 0
48 *152:8 *197:16 5.26859e-05
49 *194:19 *197:16 0
*RES
1 *1279:ZN *197:16 23.076 
2 *197:16 *197:24 2.432 
3 *197:24 *1285:S 5.792 
4 *197:24 *197:39 14.32 
5 *197:39 *1288:A2 6.02 
6 *197:39 *1289:A1 4.5 
7 *197:16 *1282:A1 4.5 
*END

*D_NET *198 0.00129626
*CONN
*I *1281:A2 I *D gf180mcu_fd_sc_mcu7t5v0__nand2_1
*I *1284:B I *D gf180mcu_fd_sc_mcu7t5v0__oai21_1
*I *1280:ZN O *D gf180mcu_fd_sc_mcu7t5v0__nand2_1
*CAP
1 *1281:A2 0
2 *1284:B 0.000176466
3 *1280:ZN 9.84103e-05
4 *198:6 0.000274876
5 *1284:B *1280:A1 8.22357e-06
6 *1284:B *1281:A1 0.000273627
7 *1284:B *1369:I 0.000267478
8 *1284:B *262:14 0
9 *1285:I0 *1284:B 0.000197178
10 *197:24 *1284:B 0
11 *197:39 *1284:B 0
*RES
1 *1280:ZN *198:6 5.184 
2 *198:6 *1284:B 15.628 
3 *198:6 *1281:A2 4.5 
*END

*D_NET *199 0.000109345
*CONN
*I *1282:A2 I *D gf180mcu_fd_sc_mcu7t5v0__aoi21_1
*I *1281:ZN O *D gf180mcu_fd_sc_mcu7t5v0__nand2_1
*CAP
1 *1282:A2 5.46724e-05
2 *1281:ZN 5.46724e-05
*RES
1 *1281:ZN *1282:A2 9.38 
*END

*D_NET *200 0.00270219
*CONN
*I *1283:A2 I *D gf180mcu_fd_sc_mcu7t5v0__nor2_1
*I *1282:ZN O *D gf180mcu_fd_sc_mcu7t5v0__aoi21_1
*CAP
1 *1283:A2 0.000855061
2 *1282:ZN 0.000855061
3 *1283:A2 *1281:A1 8.9689e-06
4 *1283:A2 *1369:I 0
5 *1285:I0 *1283:A2 0.000410532
6 *1285:S *1283:A2 6.21393e-05
7 *197:24 *1283:A2 0.000428867
8 *197:39 *1283:A2 8.15645e-05
*RES
1 *1282:ZN *1283:A2 24.84 
*END

*D_NET *201 0.000756863
*CONN
*I *1285:I1 I *D gf180mcu_fd_sc_mcu7t5v0__mux2_2
*I *1284:ZN O *D gf180mcu_fd_sc_mcu7t5v0__oai21_1
*CAP
1 *1285:I1 0.000272872
2 *1284:ZN 0.000272872
3 *1285:S *1285:I1 0.000146053
4 *197:24 *1285:I1 6.50663e-05
*RES
1 *1284:ZN *1285:I1 11.052 
*END

*D_NET *202 0.000439141
*CONN
*I *1286:A2 I *D gf180mcu_fd_sc_mcu7t5v0__and2_1
*I *1285:Z O *D gf180mcu_fd_sc_mcu7t5v0__mux2_2
*CAP
1 *1286:A2 0.00021957
2 *1285:Z 0.00021957
*RES
1 *1285:Z *1286:A2 10.216 
*END

*D_NET *203 0.000791045
*CONN
*I *1289:A2 I *D gf180mcu_fd_sc_mcu7t5v0__aoi21_1
*I *1287:ZN O *D gf180mcu_fd_sc_mcu7t5v0__oai211_1
*CAP
1 *1289:A2 0.000198339
2 *1287:ZN 0.000198339
3 *1289:A2 *244:80 0.000150768
4 *1288:A2 *1289:A2 1.02578e-05
5 *42:14 *1289:A2 7.83779e-05
6 *43:14 *1289:A2 6.08447e-06
7 *197:39 *1289:A2 0.000148879
*RES
1 *1287:ZN *1289:A2 10.9 
*END

*D_NET *204 0.000841291
*CONN
*I *1289:B I *D gf180mcu_fd_sc_mcu7t5v0__aoi21_1
*I *1288:ZN O *D gf180mcu_fd_sc_mcu7t5v0__oai21_1
*CAP
1 *1289:B 0.000185738
2 *1288:ZN 0.000185738
3 *1289:B *1323:CLK 0
4 *1288:A2 *1289:B 0.000226393
5 *42:14 *1289:B 9.80287e-05
6 *43:14 *1289:B 0.000145392
*RES
1 *1288:ZN *1289:B 10.824 
*END

*D_NET *205 0.00879695
*CONN
*I *1367:I I *D gf180mcu_fd_sc_mcu7t5v0__dlyb_1
*I *1368:I I *D gf180mcu_fd_sc_mcu7t5v0__dlyb_1
*I *1290:ZN O *D gf180mcu_fd_sc_mcu7t5v0__nand2_1
*CAP
1 *1367:I 0.000119433
2 *1368:I 0.00104312
3 *1290:ZN 0.000603293
4 *205:10 0.00176585
5 *1367:I *1311:I1 0
6 *1367:I *1370:I 0.000614434
7 *1367:I *278:12 8.54902e-05
8 *1368:I *1299:A2 8.16172e-05
9 *1368:I *1300:A1 0.000194266
10 *1368:I *1300:A2 5.87561e-06
11 *1368:I *1300:B 7.57767e-05
12 *1368:I *1302:A2 0.000154507
13 *1368:I *1307:A3 3.56875e-05
14 *1368:I *1330:SETN 0
15 *1368:I *1332:CLK 0.00034974
16 *1368:I *278:70 0.000123105
17 *1368:I *295:23 0.00126616
18 *1368:I *295:30 0.00125663
19 *205:10 *1166:A2 0
20 *205:10 *1311:I1 0
21 *205:10 *1370:I 0.000634999
22 *205:10 *295:23 0
23 *1267:A1 *205:10 0
24 *1277:A2 *205:10 7.18607e-05
25 *1296:A1 *205:10 0.000281801
26 *84:26 *205:10 2.30587e-05
27 *194:19 *205:10 1.02578e-05
*RES
1 *1290:ZN *205:10 14.016 
2 *205:10 *1368:I 20.02 
3 *205:10 *1367:I 10.596 
*END

*D_NET *206 0.000430904
*CONN
*I *1296:B I *D gf180mcu_fd_sc_mcu7t5v0__oai31_1
*I *1295:ZN O *D gf180mcu_fd_sc_mcu7t5v0__oai21_1
*CAP
1 *1296:B 2.42471e-05
2 *1295:ZN 2.42471e-05
3 *1296:B *257:44 0.00026286
4 *1296:A1 *1296:B 0.00011955
*RES
1 *1295:ZN *1296:B 9.684 
*END

*D_NET *207 0.00154486
*CONN
*I *1297:I0 I *D gf180mcu_fd_sc_mcu7t5v0__mux2_2
*I *1296:ZN O *D gf180mcu_fd_sc_mcu7t5v0__oai31_1
*CAP
1 *1297:I0 0.000582736
2 *1296:ZN 0.000582736
3 *1297:I0 *1295:B 0.000149409
4 *1297:I0 *1296:A2 5.1289e-05
5 *1297:I0 *1297:S 0
6 *1297:I0 *282:72 0
7 *1297:I0 *284:67 0.000178684
*RES
1 *1296:ZN *1297:I0 22.56 
*END

*D_NET *208 0.000352613
*CONN
*I *1299:A2 I *D gf180mcu_fd_sc_mcu7t5v0__nor2_1
*I *1298:ZN O *D gf180mcu_fd_sc_mcu7t5v0__nand2_1
*CAP
1 *1299:A2 0.000112093
2 *1298:ZN 0.000112093
3 *1299:A2 *1307:A3 7.24161e-06
4 *1299:A2 *257:25 3.95687e-05
5 *1368:I *1299:A2 8.16172e-05
*RES
1 *1298:ZN *1299:A2 9.912 
*END

*D_NET *209 0.000515994
*CONN
*I *1300:B I *D gf180mcu_fd_sc_mcu7t5v0__aoi21_1
*I *1299:ZN O *D gf180mcu_fd_sc_mcu7t5v0__nor2_1
*CAP
1 *1300:B 0.000220109
2 *1299:ZN 0.000220109
3 *1331:D *1300:B 0
4 *1368:I *1300:B 7.57767e-05
*RES
1 *1299:ZN *1300:B 10.52 
*END

*D_NET *210 0.0012498
*CONN
*I *1302:A2 I *D gf180mcu_fd_sc_mcu7t5v0__oai21_1
*I *1300:ZN O *D gf180mcu_fd_sc_mcu7t5v0__aoi21_1
*CAP
1 *1302:A2 0.000534778
2 *1300:ZN 0.000534778
3 *1302:A2 *1302:A1 2.57365e-05
4 *1302:A2 *278:91 0
5 *1330:D *1302:A2 0
6 *1368:I *1302:A2 0.000154507
*RES
1 *1300:ZN *1302:A2 12.572 
*END

*D_NET *211 0.000525391
*CONN
*I *1302:B I *D gf180mcu_fd_sc_mcu7t5v0__oai21_1
*I *1301:ZN O *D gf180mcu_fd_sc_mcu7t5v0__nand2_1
*CAP
1 *1302:B 2.55855e-05
2 *1301:ZN 2.55855e-05
3 *1302:B *245:28 0.00032464
4 *1302:B *278:91 0.000149579
*RES
1 *1301:ZN *1302:B 9.836 
*END

*D_NET *212 0.000772356
*CONN
*I *1304:C I *D gf180mcu_fd_sc_mcu7t5v0__oai211_1
*I *1303:ZN O *D gf180mcu_fd_sc_mcu7t5v0__nand2_1
*CAP
1 *1304:C 0.00024354
2 *1303:ZN 0.00024354
3 *1304:C *1303:A1 2.93969e-05
4 *1304:C *1306:B 0
5 *1304:C *1406:I 4.53734e-05
6 *1304:C *246:8 4.58601e-06
7 *1304:C *257:10 3.95795e-05
8 *1304:C *284:61 0.000166341
*RES
1 *1303:ZN *1304:C 10.976 
*END

*D_NET *213 0.0002298
*CONN
*I *1306:A2 I *D gf180mcu_fd_sc_mcu7t5v0__oai21_1
*I *1304:ZN O *D gf180mcu_fd_sc_mcu7t5v0__oai211_1
*CAP
1 *1306:A2 8.90936e-05
2 *1304:ZN 8.90936e-05
3 *1306:A2 *1291:S 4.17249e-05
4 *1306:A2 *1304:B 9.88736e-06
*RES
1 *1304:ZN *1306:A2 9.532 
*END

*D_NET *214 0.000376686
*CONN
*I *1306:B I *D gf180mcu_fd_sc_mcu7t5v0__oai21_1
*I *1305:ZN O *D gf180mcu_fd_sc_mcu7t5v0__nand2_1
*CAP
1 *1306:B 9.46776e-05
2 *1305:ZN 9.46776e-05
3 *1306:B *1406:I 4.00178e-05
4 *1306:B *284:61 0.000147313
5 *1304:C *1306:B 0
*RES
1 *1305:ZN *1306:B 9.912 
*END

*D_NET *215 0.000647052
*CONN
*I *1309:A2 I *D gf180mcu_fd_sc_mcu7t5v0__oai21_1
*I *1307:ZN O *D gf180mcu_fd_sc_mcu7t5v0__nand3_1
*CAP
1 *1309:A2 0.00027455
2 *1307:ZN 0.00027455
3 *1309:A2 *1291:S 0
4 *1309:A2 *278:70 0
5 *1332:D *1309:A2 9.79533e-05
*RES
1 *1307:ZN *1309:A2 10.824 
*END

*D_NET *216 0.000422338
*CONN
*I *1309:B I *D gf180mcu_fd_sc_mcu7t5v0__oai21_1
*I *1308:ZN O *D gf180mcu_fd_sc_mcu7t5v0__nand2_1
*CAP
1 *1309:B 8.35721e-05
2 *1308:ZN 8.35721e-05
3 *1309:B *274:10 3.28611e-05
4 *1309:B *278:48 0.000222333
*RES
1 *1308:ZN *1309:B 18.988 
*END

*D_NET *217 0.00303655
*CONN
*I *1316:A4 I *D gf180mcu_fd_sc_mcu7t5v0__nand4_1
*I *1314:A2 I *D gf180mcu_fd_sc_mcu7t5v0__aoi21_1
*I *1311:I0 I *D gf180mcu_fd_sc_mcu7t5v0__mux2_2
*I *1310:Z O *D gf180mcu_fd_sc_mcu7t5v0__and2_1
*CAP
1 *1316:A4 0.000167205
2 *1314:A2 8.26889e-05
3 *1311:I0 0.000519389
4 *1310:Z 0.000146177
5 *217:20 0.000623106
6 *1311:I0 *1311:S 5.76373e-06
7 *1311:I0 *292:8 3.45824e-05
8 *1314:A2 *1315:A2 1.5015e-05
9 *1316:A4 *1316:A1 2.40328e-06
10 *1316:A4 *282:23 0.000205447
11 *1316:A4 *282:59 9.17202e-06
12 *217:20 *1311:S 0.000111246
13 *217:20 *1315:A2 5.14116e-06
14 *217:20 *282:23 0.000673025
15 *217:20 *292:21 9.02023e-05
16 *1316:A2 *1314:A2 2.6126e-05
17 *1316:A2 *1316:A4 4.77185e-05
18 *64:23 *1314:A2 0.000272143
*RES
1 *1310:Z *1311:I0 10.14 
2 *1311:I0 *217:20 7.996 
3 *217:20 *1314:A2 14.412 
4 *217:20 *1316:A4 5.944 
*END

*D_NET *218 0.00144074
*CONN
*I *1313:A2 I *D gf180mcu_fd_sc_mcu7t5v0__aoi21_1
*I *1312:ZN O *D gf180mcu_fd_sc_mcu7t5v0__nand2_1
*CAP
1 *1313:A2 0.000432774
2 *1312:ZN 0.000432774
3 *1313:A2 *1274:A2 0.000162958
4 *1275:A2 *1313:A2 6.92316e-05
5 *1275:A3 *1313:A2 5.53027e-05
6 *1313:A1 *1313:A2 0.000250449
7 *65:12 *1313:A2 0
8 *193:10 *1313:A2 3.7253e-05
*RES
1 *1312:ZN *1313:A2 12.724 
*END

*D_NET *219 0.00270789
*CONN
*I *1317:A2 I *D gf180mcu_fd_sc_mcu7t5v0__oai21_1
*I *1315:A1 I *D gf180mcu_fd_sc_mcu7t5v0__nor2_1
*I *1313:ZN O *D gf180mcu_fd_sc_mcu7t5v0__aoi21_1
*CAP
1 *1317:A2 0
2 *1315:A1 0.000365229
3 *1313:ZN 0.000609455
4 *219:8 0.000974684
5 *1315:A1 *1335:CLK 0.000317217
6 *1315:A1 *1361:I 0.000102838
7 *1315:A1 *241:77 0.00026115
8 *219:8 *282:59 7.7322e-05
9 *1317:A1 *1315:A1 0
10 *65:12 *219:8 0
*RES
1 *1313:ZN *219:8 13.18 
2 *219:8 *1315:A1 12.648 
3 *219:8 *1317:A2 9 
*END

*D_NET *220 0.000418657
*CONN
*I *1315:A2 I *D gf180mcu_fd_sc_mcu7t5v0__nor2_1
*I *1314:ZN O *D gf180mcu_fd_sc_mcu7t5v0__aoi21_1
*CAP
1 *1315:A2 0.00019925
2 *1314:ZN 0.00019925
3 *1314:A2 *1315:A2 1.5015e-05
4 *217:20 *1315:A2 5.14116e-06
*RES
1 *1314:ZN *1315:A2 10.368 
*END

*D_NET *221 0.000656838
*CONN
*I *1317:B I *D gf180mcu_fd_sc_mcu7t5v0__oai21_1
*I *1316:ZN O *D gf180mcu_fd_sc_mcu7t5v0__nand4_1
*CAP
1 *1317:B 0.000190193
2 *1316:ZN 0.000190193
3 *1317:B *282:59 0
4 *1317:A1 *1317:B 0.000276453
*RES
1 *1316:ZN *1317:B 10.596 
*END

*D_NET *222 0.00602551
*CONN
*I *1319:A3 I *D gf180mcu_fd_sc_mcu7t5v0__nand3_1
*I *1318:ZN O *D gf180mcu_fd_sc_mcu7t5v0__nand4_1
*CAP
1 *1319:A3 0.000573036
2 *1318:ZN 0.000573036
3 *1319:A3 *1266:A2 5.29159e-05
4 *1319:A3 *1311:I1 0.000141897
5 *1319:A3 *1320:B 7.20857e-05
6 *1319:A3 *1332:CLK 0.000335795
7 *1319:A3 *244:69 0.000206717
8 *1319:A3 *244:78 0.00192962
9 *1319:A3 *244:107 0.000145228
10 *1319:A3 *278:27 0.000129078
11 *1319:A3 *278:31 9.26705e-05
12 *1212:A1 *1319:A3 0.000267578
13 *1212:A3 *1319:A3 0.000727667
14 *1269:A2 *1319:A3 0.000460684
15 *1356:D *1319:A3 0.000317503
*RES
1 *1318:ZN *1319:A3 27.88 
*END

*D_NET *223 0.00211496
*CONN
*I *1320:B I *D gf180mcu_fd_sc_mcu7t5v0__oai21_1
*I *1319:ZN O *D gf180mcu_fd_sc_mcu7t5v0__nand3_1
*CAP
1 *1320:B 0.000240301
2 *1319:ZN 0.000240301
3 *1320:B *1311:I1 0.000310356
4 *1320:B *1319:A1 0.000589822
5 *1320:B *1320:A2 1.53758e-05
6 *1320:B *278:27 0.000360235
7 *1320:B *278:31 9.00898e-05
8 *1269:A2 *1320:B 0.000147305
9 *1319:A3 *1320:B 7.20857e-05
10 *1336:D *1320:B 4.90885e-05
*RES
1 *1319:ZN *1320:B 12.42 
*END

*D_NET *224 0.00983789
*CONN
*I *1221:A1 I *D gf180mcu_fd_sc_mcu7t5v0__and3_1
*I *1224:A1 I *D gf180mcu_fd_sc_mcu7t5v0__and4_1
*I *1161:A1 I *D gf180mcu_fd_sc_mcu7t5v0__xor2_1
*I *1192:A2 I *D gf180mcu_fd_sc_mcu7t5v0__xor2_1
*I *1219:A1 I *D gf180mcu_fd_sc_mcu7t5v0__xor2_1
*I *1222:A1 I *D gf180mcu_fd_sc_mcu7t5v0__aoi21_1
*I *1218:A1 I *D gf180mcu_fd_sc_mcu7t5v0__nor2_1
*I *1337:Q O *D gf180mcu_fd_sc_mcu7t5v0__dffrnq_1
*CAP
1 *1221:A1 0
2 *1224:A1 0.000538124
3 *1161:A1 0.00022697
4 *1192:A2 0
5 *1219:A1 0.000152335
6 *1222:A1 0
7 *1218:A1 0.000189984
8 *1337:Q 0.000211425
9 *224:56 0.000315548
10 *224:52 0.000438172
11 *224:50 0.00117145
12 *224:37 0.000708725
13 *224:16 0.000359301
14 *224:12 0.000257358
15 *1161:A1 *1143:I 0
16 *1161:A1 *1164:A2 6.2915e-05
17 *1161:A1 *248:14 0.000203975
18 *1218:A1 *232:25 8.8425e-05
19 *1218:A1 *276:32 0.000383063
20 *1219:A1 *1192:A1 1.02578e-05
21 *1224:A1 *1224:A2 3.62081e-05
22 *1224:A1 *231:8 0
23 *1224:A1 *231:44 4.50449e-05
24 *224:12 *1337:RN 4.58601e-06
25 *224:12 *1338:RN 0.000435977
26 *224:12 *232:10 5.89966e-05
27 *224:12 *232:25 5.91885e-06
28 *224:12 *281:52 0.000307374
29 *224:16 *1338:RN 5.86019e-06
30 *224:16 *232:25 0.000129252
31 *224:37 *1338:RN 0.000594328
32 *224:37 *232:25 0.000398298
33 *224:37 *232:40 2.9378e-06
34 *224:50 *1164:A2 0.000130798
35 *224:50 *1338:RN 0.000244875
36 *224:50 *232:40 0.000431084
37 *224:56 *1176:A1 0
38 *1177:A4 *1161:A1 0.00026256
39 *1200:A2 *1161:A1 0.000963666
40 *1200:A2 *224:56 3.7731e-05
41 *1219:A2 *1219:A1 9.026e-05
42 *1219:A2 *1224:A1 0.000148813
43 *1219:A2 *224:52 6.54978e-05
44 *1219:A2 *224:56 0.000119798
45 *1339:D *224:12 0
*RES
1 *1337:Q *224:12 15.476 
2 *224:12 *224:16 4.88 
3 *224:16 *1218:A1 11.356 
4 *224:16 *224:37 6.704 
5 *224:37 *1222:A1 4.5 
6 *224:37 *224:50 10.2 
7 *224:50 *224:52 0.38 
8 *224:52 *224:56 5.792 
9 *224:56 *1219:A1 5.64 
10 *224:56 *1192:A2 4.5 
11 *224:52 *1161:A1 12.268 
12 *224:50 *1224:A1 13.256 
13 *224:12 *1221:A1 4.5 
*END

*D_NET *225 0.0121172
*CONN
*I *1245:A1 I *D gf180mcu_fd_sc_mcu7t5v0__nor2_1
*I *1246:A3 I *D gf180mcu_fd_sc_mcu7t5v0__nand3_1
*I *1250:A3 I *D gf180mcu_fd_sc_mcu7t5v0__nand4_1
*I *1174:A2 I *D gf180mcu_fd_sc_mcu7t5v0__xor2_1
*I *1189:A2 I *D gf180mcu_fd_sc_mcu7t5v0__xor2_1
*I *1347:Q O *D gf180mcu_fd_sc_mcu7t5v0__dffrnq_1
*CAP
1 *1245:A1 0
2 *1246:A3 3.17965e-05
3 *1250:A3 2.50935e-05
4 *1174:A2 0
5 *1189:A2 0.000364344
6 *1347:Q 0.000331771
7 *225:24 0.00172786
8 *225:18 0.0014344
9 *225:16 0.000251371
10 *225:10 0.000505558
11 *1189:A2 *1175:A1 0.000171918
12 *1189:A2 *1189:A1 2.22758e-05
13 *1189:A2 *1193:A1 8.30183e-05
14 *1189:A2 *1193:A2 0.000372137
15 *1189:A2 *229:27 0.000271881
16 *1189:A2 *248:14 0
17 *1189:A2 *279:18 5.87561e-06
18 *1246:A3 *1246:A2 2.22758e-05
19 *1246:A3 *243:71 1.3758e-05
20 *1250:A3 *1250:A2 1.3758e-05
21 *225:10 *276:93 0
22 *225:16 *1246:A2 0.00018371
23 *225:16 *238:20 0.000460427
24 *225:16 *284:67 0.000133382
25 *225:18 *1246:A2 0.000324233
26 *225:18 *243:71 0.000317373
27 *225:18 *284:67 8.62306e-05
28 *225:24 *1352:RN 4.97386e-06
29 *225:24 *228:10 0.00103215
30 *225:24 *229:27 0.000118725
31 *225:24 *243:71 0.0026645
32 *225:24 *243:75 0.000420415
33 *225:24 *287:12 0
34 *1177:A3 *1189:A2 5.09899e-05
35 *1200:A1 *1189:A2 2.6126e-05
36 *1200:A3 *1189:A2 0.000194624
37 *1248:A2 *225:10 9.58397e-05
38 *1249:A2 *225:10 0
39 *1251:A2 *1250:A3 7.83779e-05
40 *1257:A1 *225:24 1.18942e-05
41 *1257:A2 *225:24 7.65224e-05
42 *1393:I *225:24 4.42433e-05
43 *168:66 *225:16 1.54006e-05
44 *168:66 *225:18 1.40542e-05
45 *168:66 *225:24 5.94709e-06
46 *175:8 *225:10 0.000104171
47 *175:8 *225:16 3.83835e-06
*RES
1 *1347:Q *225:10 6.856 
2 *225:10 *225:16 6.628 
3 *225:16 *225:18 1.292 
4 *225:18 *225:24 17.42 
5 *225:24 *1189:A2 8.604 
6 *225:24 *1174:A2 4.5 
7 *225:18 *1250:A3 9.228 
8 *225:16 *1246:A3 9.228 
9 *225:10 *1245:A1 4.5 
*END

*D_NET *226 0.0126927
*CONN
*I *1249:A1 I *D gf180mcu_fd_sc_mcu7t5v0__nor2_1
*I *1250:A4 I *D gf180mcu_fd_sc_mcu7t5v0__nand4_1
*I *1179:A2 I *D gf180mcu_fd_sc_mcu7t5v0__xor2_1
*I *1196:A2 I *D gf180mcu_fd_sc_mcu7t5v0__aoi21_1
*I *1205:C2 I *D gf180mcu_fd_sc_mcu7t5v0__oai222_1
*I *1348:Q O *D gf180mcu_fd_sc_mcu7t5v0__dffrnq_1
*CAP
1 *1249:A1 0
2 *1250:A4 0
3 *1179:A2 0.000220161
4 *1196:A2 6.34054e-05
5 *1205:C2 0.00036197
6 *1348:Q 0.000706049
7 *226:34 0.0005994
8 *226:30 0.00173269
9 *226:22 0.00191506
10 *226:12 0.0012826
11 *1179:A2 *1171:A2 9.13464e-05
12 *1179:A2 *1179:A1 0.00107071
13 *1179:A2 *241:21 3.5453e-06
14 *226:12 *1348:RN 0.000204151
15 *226:22 *238:35 0.000136499
16 *226:22 *284:67 0.000114183
17 *226:30 *1149:I 9.60894e-06
18 *226:30 *1194:B2 0.000149579
19 *226:30 *239:33 6.78748e-05
20 *226:34 *1171:A2 3.51269e-05
21 *226:34 *1179:A1 0.00126972
22 *1184:A1 *1205:C2 8.26254e-06
23 *1187:A3 *1205:C2 0.000164455
24 *1194:B1 *226:30 4.63109e-05
25 *1198:A2 *1196:A2 3.76885e-05
26 *1198:A2 *1205:C2 0.000227141
27 *1200:A4 *1205:C2 0.0001908
28 *1201:A4 *226:34 0.000173584
29 *1203:A3 *226:30 0.000214619
30 *1204:B1 *1179:A2 2.85165e-05
31 *1205:B1 *1205:C2 0.000135056
32 *1205:C1 *1196:A2 4.80955e-05
33 *1205:C1 *1205:C2 0.000232192
34 *1206:A1 *226:30 3.65122e-05
35 *1207:A2 *226:30 1.08266e-05
36 *1249:A2 *226:22 0.000306482
37 *1251:A1 *226:22 5.30148e-05
38 *1251:A1 *226:30 0.000371789
39 *1251:A2 *226:22 0.000241516
40 *1251:A2 *226:30 8.57998e-05
41 *1257:A2 *226:30 4.63109e-05
42 *1366:I *226:12 0
43 *26:10 *226:12 0
44 *175:8 *226:22 0
*RES
1 *1348:Q *226:12 18.364 
2 *226:12 *226:22 13.788 
3 *226:22 *226:30 14 
4 *226:30 *226:34 7.768 
5 *226:34 *1205:C2 17.224 
6 *226:34 *1196:A2 5.032 
7 *226:30 *1179:A2 12.04 
8 *226:22 *1250:A4 4.5 
9 *226:12 *1249:A1 4.5 
*END

*D_NET *227 0.00703831
*CONN
*I *1253:A1 I *D gf180mcu_fd_sc_mcu7t5v0__xnor2_1
*I *1255:A1 I *D gf180mcu_fd_sc_mcu7t5v0__aoi21_1
*I *1191:A2 I *D gf180mcu_fd_sc_mcu7t5v0__xor2_1
*I *1173:A2 I *D gf180mcu_fd_sc_mcu7t5v0__xor2_1
*I *1256:A1 I *D gf180mcu_fd_sc_mcu7t5v0__nand2_1
*I *1349:Q O *D gf180mcu_fd_sc_mcu7t5v0__dffrnq_1
*CAP
1 *1253:A1 0.00020936
2 *1255:A1 0
3 *1191:A2 0.000106843
4 *1173:A2 6.0101e-05
5 *1256:A1 0.000119761
6 *1349:Q 0.000445373
7 *227:47 0.000239388
8 *227:25 0.000857445
9 *227:21 0.000912423
10 *227:6 0.000757028
11 *1173:A2 *1197:A2 0.000111858
12 *1173:A2 *230:32 4.60244e-05
13 *1191:A2 *1191:A1 0.000204383
14 *1191:A2 *1197:A1 1.18942e-05
15 *1191:A2 *1197:A2 9.44886e-05
16 *1191:A2 *287:12 1.11891e-05
17 *1253:A1 *1254:A1 1.91917e-06
18 *1253:A1 *1258:A1 0
19 *1256:A1 *1256:A2 7.24161e-06
20 *227:6 *1349:RN 0
21 *227:6 *277:8 0
22 *227:21 *284:67 0.000149402
23 *227:21 *284:71 6.70163e-05
24 *227:21 *284:75 0.000180143
25 *227:25 *1197:A2 3.25235e-05
26 *227:25 *1255:B 0.00010461
27 *227:25 *228:12 0.000451262
28 *227:25 *230:32 0.000232309
29 *227:47 *1255:B 4.58601e-06
30 *1251:A1 *1256:A1 4.68103e-05
31 *1251:A1 *227:6 1.52768e-05
32 *1252:A3 *227:6 0.000142175
33 *1253:A2 *1253:A1 0.000718147
34 *1255:A2 *227:21 2.59502e-05
35 *1258:A2 *1253:A1 0.000103847
36 *1348:D *227:6 1.30476e-05
37 *1350:D *1253:A1 0
38 *1350:D *227:25 0
39 *1350:D *227:47 0
40 *178:8 *227:21 0.00041097
41 *182:12 *1256:A1 6.0086e-05
42 *182:12 *227:6 8.34306e-05
*RES
1 *1349:Q *227:6 7.616 
2 *227:6 *1256:A1 5.412 
3 *227:6 *227:21 12.268 
4 *227:21 *227:25 5.776 
5 *227:25 *1173:A2 5.184 
6 *227:25 *1191:A2 14.868 
7 *227:21 *227:47 0.228 
8 *227:47 *1255:A1 4.5 
9 *227:47 *1253:A1 6.704 
*END

*D_NET *228 0.00479914
*CONN
*I *1256:A2 I *D gf180mcu_fd_sc_mcu7t5v0__nand2_1
*I *1255:B I *D gf180mcu_fd_sc_mcu7t5v0__aoi21_1
*I *1169:A2 I *D gf180mcu_fd_sc_mcu7t5v0__xor2_1
*I *1197:A2 I *D gf180mcu_fd_sc_mcu7t5v0__xor2_1
*I *1350:Q O *D gf180mcu_fd_sc_mcu7t5v0__dffrnq_1
*CAP
1 *1256:A2 9.79039e-05
2 *1255:B 0.000220389
3 *1169:A2 0
4 *1197:A2 0.000218556
5 *1350:Q 0
6 *228:12 0.000735637
7 *228:10 0.000931685
8 *228:4 0.000292119
9 *1197:A2 *1191:A1 1.18942e-05
10 *1197:A2 *1197:A1 0.000367102
11 *1197:A2 *255:14 0
12 *1173:A2 *1197:A2 0.000111858
13 *1191:A2 *1197:A2 9.44886e-05
14 *1256:A1 *1256:A2 7.24161e-06
15 *1257:A3 *1256:A2 3.14377e-05
16 *182:12 *1256:A2 5.37034e-05
17 *225:24 *228:10 0.00103215
18 *227:25 *1197:A2 3.25235e-05
19 *227:25 *1255:B 0.00010461
20 *227:25 *228:12 0.000451262
21 *227:47 *1255:B 4.58601e-06
*RES
1 *1350:Q *228:4 4.5 
2 *228:4 *228:10 11.508 
3 *228:10 *228:12 4.028 
4 *228:12 *1197:A2 16.236 
5 *228:12 *1169:A2 4.5 
6 *228:10 *1255:B 5.792 
7 *228:4 *1256:A2 5.26 
*END

*D_NET *229 0.00634974
*CONN
*I *1259:A1 I *D gf180mcu_fd_sc_mcu7t5v0__nor2_1
*I *1175:A2 I *D gf180mcu_fd_sc_mcu7t5v0__xor2_1
*I *1193:A2 I *D gf180mcu_fd_sc_mcu7t5v0__xor2_1
*I *1260:A1 I *D gf180mcu_fd_sc_mcu7t5v0__and2_1
*I *1351:Q O *D gf180mcu_fd_sc_mcu7t5v0__dffrnq_1
*CAP
1 *1259:A1 6.25827e-05
2 *1175:A2 0
3 *1193:A2 9.74131e-05
4 *1260:A1 5.80184e-05
5 *1351:Q 0.000298623
6 *229:27 0.00109844
7 *229:12 0.00120879
8 *229:10 0.000510947
9 *1193:A2 *1198:A1 1.52768e-05
10 *1259:A1 *1263:C 0.000106097
11 *1260:A1 *1263:C 0.000154451
12 *229:10 *277:20 0
13 *229:12 *1263:C 9.4764e-05
14 *229:27 *1263:C 0.000200861
15 *229:27 *230:12 0
16 *229:27 *255:14 0.000171927
17 *229:27 *279:12 0.000161681
18 *229:27 *288:10 1.2018e-05
19 *1189:A2 *1193:A2 0.000372137
20 *1189:A2 *229:27 0.000271881
21 *1259:A2 *1259:A1 0.000171927
22 *1259:A2 *229:12 2.96621e-05
23 *1260:A2 *229:10 0.000145096
24 *1393:I *229:27 9.74225e-05
25 *182:14 *229:10 0.000891001
26 *225:24 *229:27 0.000118725
*RES
1 *1351:Q *229:10 16.16 
2 *229:10 *229:12 1.292 
3 *229:12 *1260:A1 5.26 
4 *229:12 *229:27 7.828 
5 *229:27 *1193:A2 5.488 
6 *229:27 *1175:A2 4.5 
7 *229:10 *1259:A1 5.488 
*END

*D_NET *230 0.00699621
*CONN
*I *1196:B I *D gf180mcu_fd_sc_mcu7t5v0__aoi21_1
*I *1183:A2 I *D gf180mcu_fd_sc_mcu7t5v0__xnor2_1
*I *1262:A1 I *D gf180mcu_fd_sc_mcu7t5v0__nor2_1
*I *1263:A1 I *D gf180mcu_fd_sc_mcu7t5v0__aoi211_1
*I *1352:Q O *D gf180mcu_fd_sc_mcu7t5v0__dffrnq_1
*CAP
1 *1196:B 0
2 *1183:A2 0.000379634
3 *1262:A1 7.34195e-05
4 *1263:A1 0
5 *1352:Q 0
6 *230:32 0.00123805
7 *230:12 0.000956338
8 *230:6 0.00174134
9 *1183:A2 *1179:A1 0.000205658
10 *1262:A1 *1263:C 3.6994e-05
11 *230:12 *1263:C 7.24161e-06
12 *230:12 *1352:CLK 0
13 *230:12 *255:14 0
14 *230:32 *1173:A1 0.000211486
15 *230:32 *255:14 0
16 *230:32 *287:12 0
17 *1173:A2 *230:32 4.60244e-05
18 *1182:A1 *230:32 0.000356305
19 *1184:A2 *1183:A2 1.95187e-05
20 *1184:A2 *230:32 0.000211119
21 *1201:A4 *1183:A2 0.000468622
22 *1205:C1 *1183:A2 0.000161681
23 *1205:C1 *230:32 1.15275e-05
24 *1263:A2 *1262:A1 0.000118105
25 *1263:A2 *230:12 1.02578e-05
26 *1263:B *1262:A1 0.00026286
27 *1352:D *230:12 0.000149579
28 *97:8 *230:32 9.81346e-05
29 *227:25 *230:32 0.000232309
30 *229:27 *230:12 0
*RES
1 *1352:Q *230:6 9 
2 *230:6 *230:12 9.972 
3 *230:12 *1263:A1 4.5 
4 *230:12 *1262:A1 5.64 
5 *230:6 *230:32 12.024 
6 *230:32 *1183:A2 17.3 
7 *230:32 *1196:B 4.5 
*END

*D_NET *231 0.0056294
*CONN
*I *1190:A2 I *D gf180mcu_fd_sc_mcu7t5v0__aoi22_1
*I *1143:I I *D gf180mcu_fd_sc_mcu7t5v0__clkinv_1
*I *1176:A2 I *D gf180mcu_fd_sc_mcu7t5v0__xor2_1
*I *1224:A2 I *D gf180mcu_fd_sc_mcu7t5v0__and4_1
*I *1222:A2 I *D gf180mcu_fd_sc_mcu7t5v0__aoi21_1
*I *1221:A2 I *D gf180mcu_fd_sc_mcu7t5v0__and3_1
*I *1338:Q O *D gf180mcu_fd_sc_mcu7t5v0__dffrnq_1
*CAP
1 *1190:A2 0.000260542
2 *1143:I 0.000130814
3 *1176:A2 0.000191881
4 *1224:A2 0.000666405
5 *1222:A2 0
6 *1221:A2 0.000290089
7 *1338:Q 0
8 *231:46 0.000556482
9 *231:44 0.00098471
10 *231:8 0.000653099
11 *231:4 0.000539034
12 *1176:A2 *1142:I 0
13 *1190:A2 *1142:I 0
14 *1221:A2 *1338:RN 0.00010577
15 *1224:A2 *1224:A4 0
16 *231:8 *1338:RN 0.000886845
17 *231:46 *1142:I 0
18 *1161:A1 *1143:I 0
19 *1198:A2 *1190:A2 7.8661e-05
20 *1198:A2 *231:46 0.000110393
21 *1219:A2 *1176:A2 6.2073e-05
22 *1219:A2 *231:46 1.42348e-05
23 *1223:A3 *1221:A2 1.71121e-05
24 *1224:A1 *1224:A2 3.62081e-05
25 *1224:A1 *231:8 0
26 *1224:A1 *231:44 4.50449e-05
27 *159:8 *231:44 0
28 *159:14 *231:44 0
*RES
1 *1338:Q *231:4 4.5 
2 *231:4 *231:8 3.344 
3 *231:8 *1221:A2 6.4 
4 *231:8 *1222:A2 4.5 
5 *231:4 *1224:A2 5.792 
6 *1224:A2 *231:44 12.116 
7 *231:44 *231:46 1.596 
8 *231:46 *1176:A2 9.988 
9 *231:46 *1143:I 9.836 
10 *231:44 *1190:A2 10.824 
*END

*D_NET *232 0.0134394
*CONN
*I *1224:A3 I *D gf180mcu_fd_sc_mcu7t5v0__and4_1
*I *1188:A2 I *D gf180mcu_fd_sc_mcu7t5v0__xnor2_1
*I *1164:A2 I *D gf180mcu_fd_sc_mcu7t5v0__xor2_1
*I *1222:B I *D gf180mcu_fd_sc_mcu7t5v0__aoi21_1
*I *1221:A3 I *D gf180mcu_fd_sc_mcu7t5v0__and3_1
*I *1339:Q O *D gf180mcu_fd_sc_mcu7t5v0__dffrnq_1
*CAP
1 *1224:A3 0
2 *1188:A2 0.00080783
3 *1164:A2 0.000554122
4 *1222:B 8.2068e-05
5 *1221:A3 0
6 *1339:Q 0.000664397
7 *232:57 0.00139349
8 *232:40 0.00151653
9 *232:25 0.000714242
10 *232:10 0.000919817
11 *1164:A2 *1161:A2 5.34232e-05
12 *1164:A2 *1192:A1 0
13 *232:10 *1339:RN 3.14261e-05
14 *232:10 *233:12 0.000762054
15 *232:10 *276:26 0.000110995
16 *232:10 *276:28 0.000300149
17 *232:10 *276:32 9.50933e-05
18 *232:10 *281:52 0.00017672
19 *232:25 *276:32 0.000287955
20 *1161:A1 *1164:A2 6.2915e-05
21 *1200:A2 *1164:A2 0.000451917
22 *1218:A1 *232:25 8.8425e-05
23 *1219:A2 *1164:A2 0.000555095
24 *1220:A2 *1164:A2 0
25 *1225:A2 *232:10 0.000508189
26 *1227:A1 *1188:A2 0.000496763
27 *1228:A2 *1188:A2 1.91917e-06
28 *1338:D *1164:A2 0
29 *1340:D *232:10 0.000339421
30 *89:10 *1188:A2 1.11891e-05
31 *89:25 *1188:A2 0.000858374
32 *157:8 *232:10 0.000437622
33 *159:14 *1188:A2 0
34 *159:27 *1188:A2 0
35 *224:12 *232:10 5.89966e-05
36 *224:12 *232:25 5.91885e-06
37 *224:16 *232:25 0.000129252
38 *224:37 *232:25 0.000398298
39 *224:37 *232:40 2.9378e-06
40 *224:50 *1164:A2 0.000130798
41 *224:50 *232:40 0.000431084
*RES
1 *1339:Q *232:10 16.904 
2 *232:10 *1221:A3 9 
3 *232:10 *232:25 6.856 
4 *232:25 *1222:B 13.88 
5 *232:25 *232:40 7.616 
6 *232:40 *1164:A2 14.168 
7 *232:40 *232:57 2.812 
8 *232:57 *1188:A2 14.852 
9 *232:57 *1224:A3 9 
*END

*D_NET *233 0.0105338
*CONN
*I *1144:I I *D gf180mcu_fd_sc_mcu7t5v0__clkinv_1
*I *1172:A2 I *D gf180mcu_fd_sc_mcu7t5v0__xor2_1
*I *1224:A4 I *D gf180mcu_fd_sc_mcu7t5v0__and4_1
*I *1225:A1 I *D gf180mcu_fd_sc_mcu7t5v0__nor2_1
*I *1340:Q O *D gf180mcu_fd_sc_mcu7t5v0__dffrnq_1
*CAP
1 *1144:I 0.00029371
2 *1172:A2 0.000905289
3 *1224:A4 0.000780407
4 *1225:A1 0
5 *1340:Q 0.000290662
6 *233:12 0.00122656
7 *233:6 0.00134839
8 *1144:I *1188:A1 5.27102e-05
9 *1144:I *235:40 0.000339514
10 *1144:I *235:46 0
11 *1144:I *237:22 0
12 *1172:A2 *235:6 0.000131502
13 *1172:A2 *235:25 0.000558664
14 *1172:A2 *235:40 1.66121e-06
15 *1172:A2 *237:22 0.000224654
16 *1172:A2 *249:20 0.00022078
17 *1224:A4 *1341:CLK 5.55841e-06
18 *233:6 *235:6 7.41459e-05
19 *233:6 *249:20 9.82435e-05
20 *233:12 *1341:RN 6.31406e-05
21 *233:12 *276:26 0.00056587
22 *233:12 *281:18 0.000132335
23 *233:12 *281:52 0.00010765
24 *1224:A2 *1224:A4 0
25 *1226:A2 *1224:A4 0
26 *1226:A3 *1224:A4 8.55242e-05
27 *1231:A2 *1172:A2 0.000552367
28 *1232:A3 *1172:A2 0.000201027
29 *1237:A3 *1172:A2 0.000312843
30 *1237:A4 *1172:A2 0.000164081
31 *1342:D *1172:A2 0
32 *1342:D *233:6 0
33 *159:8 *1224:A4 4.50449e-05
34 *159:14 *1224:A4 0.000305877
35 *159:38 *1172:A2 0.000683562
36 *232:10 *233:12 0.000762054
*RES
1 *1340:Q *233:6 6.4 
2 *233:6 *233:12 15.004 
3 *233:12 *1225:A1 4.5 
4 *233:12 *1224:A4 9.972 
5 *233:6 *1172:A2 21.252 
6 *1172:A2 *1144:I 20.432 
*END

*D_NET *234 0.00211273
*CONN
*I *1231:A1 I *D gf180mcu_fd_sc_mcu7t5v0__aoi21_1
*I *1229:A1 I *D gf180mcu_fd_sc_mcu7t5v0__and2_1
*I *1145:I I *D gf180mcu_fd_sc_mcu7t5v0__clkinv_1
*I *1341:Q O *D gf180mcu_fd_sc_mcu7t5v0__dffrnq_1
*CAP
1 *1231:A1 8.39986e-05
2 *1229:A1 2.09542e-05
3 *1145:I 9.84103e-05
4 *1341:Q 0
5 *234:8 0.000312961
6 *234:4 0.000277596
7 *1229:A1 *235:25 3.07734e-05
8 *1231:A1 *1231:B 1.75856e-05
9 *1231:A1 *235:25 0.000184751
10 *1231:A1 *249:20 4.60244e-05
11 *234:8 *1231:B 2.57058e-06
12 *234:8 *235:25 0.000246799
13 *234:8 *249:20 0.000790305
*RES
1 *1341:Q *234:4 4.5 
2 *234:4 *234:8 2.736 
3 *234:8 *1145:I 5.184 
4 *234:8 *1229:A1 4.728 
5 *234:4 *1231:A1 5.64 
*END

*D_NET *235 0.00935487
*CONN
*I *1162:A2 I *D gf180mcu_fd_sc_mcu7t5v0__xor2_1
*I *1205:B2 I *D gf180mcu_fd_sc_mcu7t5v0__oai222_1
*I *1190:B2 I *D gf180mcu_fd_sc_mcu7t5v0__aoi22_1
*I *1229:A2 I *D gf180mcu_fd_sc_mcu7t5v0__and2_1
*I *1231:B I *D gf180mcu_fd_sc_mcu7t5v0__aoi21_1
*I *1342:Q O *D gf180mcu_fd_sc_mcu7t5v0__dffrnq_1
*CAP
1 *1162:A2 0.000107696
2 *1205:B2 0.000196161
3 *1190:B2 0
4 *1229:A2 0
5 *1231:B 3.32233e-05
6 *1342:Q 0.000147301
7 *235:46 0.000898109
8 *235:40 0.00138844
9 *235:25 0.000938991
10 *235:6 0.000540721
11 *1162:A2 *237:22 0.000441063
12 *1231:B *249:20 3.07734e-05
13 *235:6 *249:20 0.000212474
14 *235:25 *249:20 0.00033012
15 *235:40 *1188:A1 2.26535e-05
16 *235:40 *1362:I 0
17 *235:40 *237:22 0.000495697
18 *235:40 *249:20 0.000321497
19 *235:46 *1142:I 0.000269865
20 *235:46 *250:23 0
21 *1144:I *235:40 0.000339514
22 *1144:I *235:46 0
23 *1172:A2 *235:6 0.000131502
24 *1172:A2 *235:25 0.000558664
25 *1172:A2 *235:40 1.66121e-06
26 *1181:A1 *235:46 0
27 *1190:A1 *235:46 0.000213194
28 *1190:B1 *1205:B2 0.000349417
29 *1198:A2 *1205:B2 0.000369191
30 *1203:A2 *235:46 0.000388757
31 *1207:A1 *235:46 0
32 *1207:A4 *235:46 0
33 *1229:A1 *235:25 3.07734e-05
34 *1231:A1 *1231:B 1.75856e-05
35 *1231:A1 *235:25 0.000184751
36 *1232:A2 *235:25 0
37 *1232:A3 *235:6 4.06693e-05
38 *1232:A3 *235:25 3.08902e-05
39 *150:8 *235:46 0
40 *233:6 *235:6 7.41459e-05
41 *234:8 *1231:B 2.57058e-06
42 *234:8 *235:25 0.000246799
*RES
1 *1342:Q *235:6 6.248 
2 *235:6 *1231:B 4.956 
3 *235:6 *235:25 4.788 
4 *235:25 *1229:A2 4.5 
5 *235:25 *235:40 14.092 
6 *235:40 *235:46 15.46 
7 *235:46 *1190:B2 4.5 
8 *235:46 *1205:B2 6.856 
9 *235:40 *1162:A2 5.64 
*END

*D_NET *236 0.0127462
*CONN
*I *1233:A1 I *D gf180mcu_fd_sc_mcu7t5v0__nand2_1
*I *1195:A2 I *D gf180mcu_fd_sc_mcu7t5v0__xor2_1
*I *1171:A2 I *D gf180mcu_fd_sc_mcu7t5v0__xor2_1
*I *1237:A1 I *D gf180mcu_fd_sc_mcu7t5v0__nand4_1
*I *1234:A1 I *D gf180mcu_fd_sc_mcu7t5v0__xnor2_1
*I *1343:Q O *D gf180mcu_fd_sc_mcu7t5v0__dffrnq_1
*CAP
1 *1233:A1 5.43968e-06
2 *1195:A2 0.000306424
3 *1171:A2 0.00111179
4 *1237:A1 1.78572e-05
5 *1234:A1 0
6 *1343:Q 0.000839451
7 *236:40 0.00229049
8 *236:23 0.000896173
9 *236:21 0.000346986
10 *236:12 0.00117495
11 *1171:A2 *1171:A1 2.76081e-05
12 *1171:A2 *1179:A1 0
13 *1171:A2 *241:21 0.000317523
14 *1171:A2 *241:39 1.5961e-05
15 *1195:A2 *241:11 0.000107984
16 *1195:A2 *241:21 1.76629e-05
17 *1233:A1 *237:14 0.0003062
18 *1237:A1 *237:14 0.000594335
19 *236:12 *1322:CLK 4.71416e-05
20 *236:12 *281:102 0
21 *236:21 *276:84 0
22 *236:23 *237:14 0.00018371
23 *236:40 *241:39 0.000521479
24 *236:40 *276:84 0.000193155
25 *1179:A2 *1171:A2 9.13464e-05
26 *1180:A1 *236:40 1.15275e-05
27 *1181:A2 *236:40 0.000131642
28 *1185:A2 *1195:A2 9.27021e-05
29 *1187:A3 *1171:A2 0
30 *1187:A3 *1195:A2 8.64364e-05
31 *1187:A3 *236:40 1.46159e-05
32 *1200:A4 *1195:A2 0
33 *1201:A4 *1171:A2 0.00114091
34 *1205:C1 *1171:A2 0.000137785
35 *1207:A2 *1171:A2 0.00013415
36 *1233:A2 *236:21 0.000173286
37 *1234:A2 *236:12 9.52854e-05
38 *1236:A1 *236:40 0
39 *1236:A2 *236:40 0
40 *1365:I *236:40 0
41 *168:12 *1233:A1 0.000342528
42 *168:12 *1237:A1 0.000523951
43 *168:12 *236:23 0.00020862
44 *168:27 *1195:A2 0.000203975
45 *226:34 *1171:A2 3.51269e-05
*RES
1 *1343:Q *236:12 19.124 
2 *236:12 *1234:A1 4.5 
3 *236:12 *236:21 6.856 
4 *236:21 *236:23 0.532 
5 *236:23 *1237:A1 10.444 
6 *236:23 *236:40 15.992 
7 *236:40 *1171:A2 19.108 
8 *236:40 *1195:A2 11.736 
9 *236:21 *1233:A1 9.836 
*END

*D_NET *237 0.0128996
*CONN
*I *1148:I I *D gf180mcu_fd_sc_mcu7t5v0__clkinv_1
*I *1237:A2 I *D gf180mcu_fd_sc_mcu7t5v0__nand4_1
*I *1204:B2 I *D gf180mcu_fd_sc_mcu7t5v0__oai22_1
*I *1199:A2 I *D gf180mcu_fd_sc_mcu7t5v0__aoi221_1
*I *1344:Q O *D gf180mcu_fd_sc_mcu7t5v0__dffrnq_1
*CAP
1 *1148:I 0.000459023
2 *1237:A2 0
3 *1204:B2 0
4 *1199:A2 0.000529008
5 *1344:Q 0.000749172
6 *237:22 0.0010181
7 *237:14 0.000948339
8 *237:10 0.00166744
9 *1148:I *242:26 0
10 *1148:I *281:102 0.000124419
11 *1199:A2 *1162:A1 6.05336e-05
12 *1199:A2 *241:21 5.76063e-06
13 *237:10 *1344:RN 0
14 *237:22 *1162:A1 0.00036645
15 *237:22 *276:84 3.61829e-05
16 *1144:I *237:22 0
17 *1162:A2 *237:22 0.000441063
18 *1172:A2 *237:22 0.000224654
19 *1180:A2 *237:22 0.000629558
20 *1185:A2 *1148:I 8.55242e-05
21 *1199:B1 *1199:A2 9.88736e-06
22 *1200:A4 *1199:A2 0.00021548
23 *1200:A4 *237:22 0.00053309
24 *1201:A3 *1199:A2 0.000141897
25 *1203:A3 *1199:A2 0
26 *1204:B1 *1199:A2 0.000686279
27 *1207:A2 *1199:A2 6.66044e-05
28 *1233:A1 *237:14 0.0003062
29 *1236:A1 *1148:I 0.000326107
30 *1237:A1 *237:14 0.000594335
31 *1237:A3 *237:22 3.08902e-05
32 *1238:A1 *1148:I 0.000374234
33 *1238:A2 *1148:I 0.000981926
34 *1238:A3 *237:14 1.78413e-05
35 *1344:D *237:14 0.000116713
36 *1355:D *237:10 0.000141888
37 *151:6 *1148:I 0.000154348
38 *168:12 *1148:I 1.43775e-05
39 *168:12 *237:14 0.000162909
40 *235:40 *237:22 0.000495697
41 *236:23 *237:14 0.00018371
*RES
1 *1344:Q *237:10 14.016 
2 *237:10 *237:14 9.288 
3 *237:14 *237:22 11.416 
4 *237:22 *1199:A2 14.092 
5 *237:22 *1204:B2 9 
6 *237:14 *1237:A2 4.5 
7 *237:10 *1148:I 14.7 
*END

*D_NET *238 0.0133726
*CONN
*I *1240:A1 I *D gf180mcu_fd_sc_mcu7t5v0__xor2_1
*I *1250:A1 I *D gf180mcu_fd_sc_mcu7t5v0__nand4_1
*I *1199:B2 I *D gf180mcu_fd_sc_mcu7t5v0__aoi221_1
*I *1178:A2 I *D gf180mcu_fd_sc_mcu7t5v0__xor2_1
*I *1150:I I *D gf180mcu_fd_sc_mcu7t5v0__clkinv_1
*I *1246:A1 I *D gf180mcu_fd_sc_mcu7t5v0__nand3_1
*I *1345:Q O *D gf180mcu_fd_sc_mcu7t5v0__dffrnq_1
*CAP
1 *1240:A1 0
2 *1250:A1 0
3 *1199:B2 0
4 *1178:A2 0.000202455
5 *1150:I 2.88537e-05
6 *1246:A1 0
7 *1345:Q 0.000593925
8 *238:48 0.000480028
9 *238:37 0.000432734
10 *238:35 0.000236951
11 *238:20 0.000503068
12 *238:12 0.000986349
13 *1150:I *239:33 1.02578e-05
14 *1178:A2 *1147:I 0.000206341
15 *1178:A2 *1179:A1 0
16 *238:12 *1345:CLK 0.000158878
17 *238:12 *254:12 8.7332e-05
18 *238:12 *284:67 0.000161898
19 *238:20 *1246:A2 1.5015e-05
20 *238:20 *1345:CLK 0
21 *238:20 *284:67 0.00217739
22 *238:35 *284:67 0.000589761
23 *238:37 *1250:A2 0.00013063
24 *238:37 *239:33 0.00133439
25 *238:37 *243:71 0.00159549
26 *238:37 *255:14 1.20079e-05
27 *238:48 *1149:I 8.62664e-05
28 *238:48 *1363:I 0.000438681
29 *238:48 *241:21 0
30 *238:48 *243:71 5.4634e-05
31 *1170:A1 *1178:A2 0.000859634
32 *1194:A2 *238:48 0.000221732
33 *1198:B2 *238:48 5.09739e-06
34 *1199:B1 *238:48 2.96621e-05
35 *1199:C *238:48 0.000182096
36 *1201:A3 *1178:A2 0
37 *1203:A3 *238:48 6.30226e-05
38 *1249:A2 *238:35 0
39 *1251:A2 *238:35 9.61205e-06
40 *1251:A2 *238:37 3.83835e-06
41 *1345:D *238:12 0.000134206
42 *91:10 *1178:A2 0.000276717
43 *93:12 *1178:A2 0.000206333
44 *93:12 *238:48 0.00020108
45 *175:8 *238:20 2.96621e-05
46 *175:8 *238:35 2.96621e-05
47 *225:16 *238:20 0.000460427
48 *226:22 *238:35 0.000136499
*RES
1 *1345:Q *238:12 18.82 
2 *238:12 *238:20 14.624 
3 *238:20 *1246:A1 4.5 
4 *238:20 *238:35 10.9 
5 *238:35 *238:37 4.332 
6 *238:37 *1150:I 4.728 
7 *238:37 *238:48 3.648 
8 *238:48 *1178:A2 16.16 
9 *238:48 *1199:B2 4.5 
10 *238:35 *1250:A1 4.5 
11 *238:12 *1240:A1 4.5 
*END

*D_NET *239 0.011578
*CONN
*I *1170:A2 I *D gf180mcu_fd_sc_mcu7t5v0__xor2_1
*I *1242:A1 I *D gf180mcu_fd_sc_mcu7t5v0__nor2_1
*I *1152:I I *D gf180mcu_fd_sc_mcu7t5v0__clkinv_1
*I *1250:A2 I *D gf180mcu_fd_sc_mcu7t5v0__nand4_1
*I *1246:A2 I *D gf180mcu_fd_sc_mcu7t5v0__nand3_1
*I *1194:B2 I *D gf180mcu_fd_sc_mcu7t5v0__aoi22_1
*I *1346:Q O *D gf180mcu_fd_sc_mcu7t5v0__dffrnq_1
*CAP
1 *1170:A2 8.64397e-05
2 *1242:A1 0.000207885
3 *1152:I 1.3072e-05
4 *1250:A2 6.62947e-05
5 *1246:A2 0.000113673
6 *1194:B2 9.92223e-05
7 *1346:Q 0.000378828
8 *239:33 0.00068434
9 *239:14 0.000740407
10 *239:12 0.000212824
11 *239:10 0.000560794
12 *239:8 0.000755237
13 *1152:I *1363:I 3.73627e-05
14 *1170:A2 *254:12 0.00109034
15 *1194:B2 *1149:I 1.02578e-05
16 *1194:B2 *255:14 0.000101491
17 *1242:A1 *276:84 0
18 *1246:A2 *243:71 1.49066e-06
19 *239:10 *243:56 0.000254652
20 *239:12 *243:56 0.000216296
21 *239:14 *243:56 2.47727e-05
22 *239:14 *255:14 1.28891e-05
23 *239:33 *255:14 0.000263727
24 *1150:I *239:33 1.02578e-05
25 *1198:B2 *1152:I 7.83779e-05
26 *1199:C *1194:B2 1.48677e-05
27 *1199:C *239:14 3.26862e-05
28 *1239:A1 *1242:A1 7.19163e-06
29 *1240:A2 *1170:A2 7.98466e-05
30 *1243:A1 *1242:A1 1.49066e-06
31 *1243:A2 *239:12 0.000242677
32 *1246:A3 *1246:A2 2.22758e-05
33 *1247:A2 *1246:A2 7.83779e-05
34 *1250:A3 *1250:A2 1.3758e-05
35 *1251:A2 *1250:A2 5.08971e-06
36 *1251:A2 *239:33 7.24161e-06
37 *1257:A2 *239:33 3.23347e-05
38 *94:17 *239:14 4.66861e-05
39 *96:8 *239:12 8.15645e-05
40 *96:8 *239:14 8.8425e-05
41 *168:27 *1170:A2 0.00063443
42 *168:35 *239:10 0.00130475
43 *168:35 *239:12 0.000510921
44 *168:66 *1246:A2 9.30087e-05
45 *172:14 *1242:A1 4.89079e-05
46 *175:8 *1246:A2 5.09739e-06
47 *225:16 *1246:A2 0.00018371
48 *225:18 *1246:A2 0.000324233
49 *226:30 *1194:B2 0.000149579
50 *226:30 *239:33 6.78748e-05
51 *238:20 *1246:A2 1.5015e-05
52 *238:37 *1250:A2 0.00013063
53 *238:37 *239:33 0.00133439
*RES
1 *1346:Q *239:8 11.508 
2 *239:8 *239:10 3.876 
3 *239:10 *239:12 1.9 
4 *239:12 *239:14 1.14 
5 *239:14 *1194:B2 10.216 
6 *239:14 *239:33 9.44 
7 *239:33 *1246:A2 15.172 
8 *239:33 *1250:A2 5.108 
9 *239:12 *1152:I 9.228 
10 *239:10 *1242:A1 10.14 
11 *239:8 *1170:A2 11.812 
*END

*D_NET *240 0.0112922
*CONN
*I *1268:A2 I *D gf180mcu_fd_sc_mcu7t5v0__nand2_1
*I *1212:A2 I *D gf180mcu_fd_sc_mcu7t5v0__nand3_1
*I *1318:A4 I *D gf180mcu_fd_sc_mcu7t5v0__nand4_1
*I *1290:A1 I *D gf180mcu_fd_sc_mcu7t5v0__nand2_1
*I *1310:A1 I *D gf180mcu_fd_sc_mcu7t5v0__and2_1
*I *1278:B2 I *D gf180mcu_fd_sc_mcu7t5v0__oai22_1
*I *1272:A1 I *D gf180mcu_fd_sc_mcu7t5v0__nor2_1
*I *1353:Q O *D gf180mcu_fd_sc_mcu7t5v0__dffrnq_1
*CAP
1 *1268:A2 0
2 *1212:A2 0.000105387
3 *1318:A4 3.00382e-05
4 *1290:A1 0
5 *1310:A1 0.000317325
6 *1278:B2 0
7 *1272:A1 0.000344323
8 *1353:Q 0.000138502
9 *240:66 0.000418026
10 *240:58 0.000514604
11 *240:45 0.000469062
12 *240:32 0.000652296
13 *240:14 0.000452239
14 *240:10 0.00034433
15 *1272:A1 *283:56 0
16 *1272:A1 *294:10 0.00131034
17 *240:10 *283:54 8.56396e-05
18 *240:32 *283:54 9.9501e-05
19 *240:45 *283:54 0.000228375
20 *240:58 *1166:A2 0.000277084
21 *240:58 *244:67 0
22 *240:58 *244:78 9.23308e-06
23 *240:58 *283:54 0.000206772
24 *240:66 *1166:A2 0.000431543
25 *240:66 *1278:A1 0
26 *1166:A1 *240:66 5.50729e-05
27 *1166:A3 *240:66 0.000372137
28 *1166:A4 *240:66 5.23776e-05
29 *1212:A1 *1212:A2 0.000496534
30 *1212:A1 *1318:A4 0.000324233
31 *1268:A1 *240:58 4.50449e-05
32 *1268:A1 *240:66 0.000253438
33 *1270:B *240:66 0.000243561
34 *1278:B1 *1272:A1 7.14427e-05
35 *1278:B1 *240:14 1.02578e-05
36 *1279:A1 *1310:A1 0.000387846
37 *1279:A2 *240:14 2.5879e-05
38 *1318:A1 *240:66 2.6126e-05
39 *1318:A2 *240:66 9.88736e-06
40 *42:42 *1212:A2 0.000174571
41 *42:42 *1318:A4 0.000331093
42 *83:15 *240:66 1.6604e-05
43 *83:26 *240:66 0.000394018
44 *110:25 *1272:A1 0.000105105
45 *110:34 *1272:A1 0.00138094
46 *111:12 *1272:A1 0
47 *111:12 *240:10 4.63109e-05
48 *111:12 *240:14 0
49 *197:16 *1272:A1 3.51062e-05
50 *197:16 *240:14 0
*RES
1 *1353:Q *240:10 10.216 
2 *240:10 *240:14 5.336 
3 *240:14 *1272:A1 10.352 
4 *240:14 *1278:B2 4.5 
5 *240:10 *240:32 0.836 
6 *240:32 *1310:A1 11.584 
7 *240:32 *240:45 1.9 
8 *240:45 *1290:A1 9 
9 *240:45 *240:58 6.932 
10 *240:58 *240:66 9.136 
11 *240:66 *1318:A4 9.836 
12 *240:66 *1212:A2 10.292 
13 *240:58 *1268:A2 4.5 
*END

*D_NET *241 0.00839526
*CONN
*I *1361:I I *D gf180mcu_fd_sc_mcu7t5v0__clkbuf_16
*I *1360:I I *D gf180mcu_fd_sc_mcu7t5v0__clkbuf_16
*I *1358:I I *D gf180mcu_fd_sc_mcu7t5v0__clkbuf_16
*I *1359:I I *D gf180mcu_fd_sc_mcu7t5v0__clkbuf_16
*I *1357:Z O *D gf180mcu_fd_sc_mcu7t5v0__clkbuf_16
*CAP
1 *1361:I 4.6632e-05
2 *1360:I 0.000150223
3 *1358:I 9.84103e-05
4 *1359:I 0.000103762
5 *1357:Z 0
6 *241:77 0.000573595
7 *241:64 0.000656321
8 *241:53 0.00027958
9 *241:39 0.000824005
10 *241:21 0.000832077
11 *241:11 0.00193416
12 *241:6 0.00048025
13 *1360:I *1335:CLK 5.2971e-05
14 *241:11 *253:12 4.34843e-05
15 *241:21 *1147:I 2.61046e-05
16 *241:21 *1179:A1 6.73926e-05
17 *241:39 *276:84 0
18 *241:64 *1335:CLK 4.66458e-05
19 *241:77 *1316:A1 2.40328e-06
20 *241:77 *1335:CLK 0.000145536
21 *1171:A2 *241:21 0.000317523
22 *1171:A2 *241:39 1.5961e-05
23 *1179:A2 *241:21 3.5453e-06
24 *1180:A3 *241:21 7.44711e-05
25 *1180:A4 *241:21 6.13012e-05
26 *1186:A1 *241:11 0
27 *1187:A2 *241:39 1.44832e-05
28 *1195:A2 *241:11 0.000107984
29 *1195:A2 *241:21 1.76629e-05
30 *1199:A2 *241:21 5.76063e-06
31 *1199:C *1359:I 1.7474e-05
32 *1199:C *241:21 5.856e-06
33 *1204:B1 *241:21 7.53241e-05
34 *1207:A1 *241:39 0.000131642
35 *1315:A1 *1361:I 0.000102838
36 *1315:A1 *241:77 0.00026115
37 *1317:A1 *1361:I 4.05628e-05
38 *1317:A1 *241:77 3.85399e-05
39 *1365:I *241:39 0
40 *1366:I *241:39 0.000122309
41 *64:6 *241:77 6.50663e-05
42 *64:12 *241:77 3.07734e-05
43 *236:40 *241:39 0.000521479
44 *238:48 *241:21 0
*RES
1 *1357:Z *241:6 9 
2 *241:6 *241:11 3.116 
3 *241:11 *241:21 10.428 
4 *241:21 *1359:I 5.184 
5 *241:11 *241:39 10.352 
6 *241:39 *1358:I 5.184 
7 *1357:Z *241:53 4.5 
8 *241:53 *1360:I 5.564 
9 *241:53 *241:64 0.838714 
10 *241:64 *241:77 13.3809 
11 *241:77 *1361:I 5.13243 
*END

*D_NET *242 0.0187705
*CONN
*I *1354:CLK I *D gf180mcu_fd_sc_mcu7t5v0__dffsnq_1
*I *1343:CLK I *D gf180mcu_fd_sc_mcu7t5v0__dffrnq_1
*I *1340:CLK I *D gf180mcu_fd_sc_mcu7t5v0__dffrnq_1
*I *1341:CLK I *D gf180mcu_fd_sc_mcu7t5v0__dffrnq_1
*I *1339:CLK I *D gf180mcu_fd_sc_mcu7t5v0__dffrnq_1
*I *1338:CLK I *D gf180mcu_fd_sc_mcu7t5v0__dffrnq_1
*I *1337:CLK I *D gf180mcu_fd_sc_mcu7t5v0__dffrnq_1
*I *1344:CLK I *D gf180mcu_fd_sc_mcu7t5v0__dffrnq_1
*I *1342:CLK I *D gf180mcu_fd_sc_mcu7t5v0__dffrnq_1
*I *1362:I I *D gf180mcu_fd_sc_mcu7t5v0__clkbuf_2
*I *1358:Z O *D gf180mcu_fd_sc_mcu7t5v0__clkbuf_16
*CAP
1 *1354:CLK 0
2 *1343:CLK 0.000708261
3 *1340:CLK 0
4 *1341:CLK 0.000530906
5 *1339:CLK 0
6 *1338:CLK 0.00068522
7 *1337:CLK 0
8 *1344:CLK 0
9 *1342:CLK 0.000935271
10 *1362:I 0.000123764
11 *1358:Z 0.000675062
12 *242:65 0.00165206
13 *242:59 0.00181043
14 *242:53 0.00250914
15 *242:49 0.002103
16 *242:45 0.000407828
17 *242:26 0.00133884
18 *1338:CLK *1220:A1 0
19 *1341:CLK *1228:A1 2.23477e-05
20 *1341:CLK *281:52 0.000486883
21 *1342:CLK *276:10 0
22 *1343:CLK *276:24 0
23 *1343:CLK *276:84 0
24 *242:53 *281:39 0.0014999
25 *242:59 *1339:RN 0.000258057
26 *242:59 *281:52 5.40976e-05
27 *1148:I *242:26 0
28 *1224:A4 *1341:CLK 5.55841e-06
29 *1226:A2 *1341:CLK 0.000741951
30 *1226:A3 *1341:CLK 1.15244e-05
31 *1228:A2 *1341:CLK 0
32 *1235:A2 *1343:CLK 1.15275e-05
33 *1236:A1 *242:26 0.000262996
34 *1337:D *1338:CLK 8.74908e-05
35 *1337:D *242:65 5.76373e-06
36 *1338:D *1338:CLK 0
37 *1340:D *1341:CLK 4.33001e-05
38 *1343:D *1343:CLK 6.77492e-05
39 *1344:D *1342:CLK 5.76373e-06
40 *1344:D *242:26 0.000493366
41 *1365:I *1342:CLK 0.00034799
42 *1365:I *242:26 0.000237652
43 *88:12 *1362:I 0
44 *168:12 *242:26 0.000307983
45 *168:27 *242:26 0.000338856
46 *235:40 *1362:I 0
*RES
1 *1358:Z *1362:I 9.684 
2 *1358:Z *242:26 18.744 
3 *242:26 *1342:CLK 9.896 
4 *242:26 *1344:CLK 4.5 
5 *1342:CLK *242:45 5.64 
6 *242:45 *242:49 5.944 
7 *242:49 *242:53 12.632 
8 *242:53 *242:59 9.82 
9 *242:59 *242:65 10.58 
10 *242:65 *1337:CLK 4.5 
11 *242:65 *1338:CLK 8.832 
12 *242:59 *1339:CLK 9 
13 *242:53 *1341:CLK 9.06 
14 *242:53 *1340:CLK 4.5 
15 *242:49 *1343:CLK 13.332 
16 *242:45 *1354:CLK 4.5 
*END

*D_NET *243 0.0229291
*CONN
*I *1349:CLK I *D gf180mcu_fd_sc_mcu7t5v0__dffrnq_1
*I *1348:CLK I *D gf180mcu_fd_sc_mcu7t5v0__dffrnq_1
*I *1350:CLK I *D gf180mcu_fd_sc_mcu7t5v0__dffrnq_1
*I *1351:CLK I *D gf180mcu_fd_sc_mcu7t5v0__dffrnq_1
*I *1352:CLK I *D gf180mcu_fd_sc_mcu7t5v0__dffrnq_1
*I *1363:I I *D gf180mcu_fd_sc_mcu7t5v0__clkbuf_2
*I *1334:CLK I *D gf180mcu_fd_sc_mcu7t5v0__dffrnq_1
*I *1333:CLK I *D gf180mcu_fd_sc_mcu7t5v0__dffrnq_1
*I *1353:CLK I *D gf180mcu_fd_sc_mcu7t5v0__dffrnq_1
*I *1346:CLK I *D gf180mcu_fd_sc_mcu7t5v0__dffrnq_1
*I *1359:Z O *D gf180mcu_fd_sc_mcu7t5v0__clkbuf_16
*CAP
1 *1349:CLK 0
2 *1348:CLK 0.0010141
3 *1350:CLK 0
4 *1351:CLK 0.000323048
5 *1352:CLK 0.000313758
6 *1363:I 9.91274e-05
7 *1334:CLK 0.000104524
8 *1333:CLK 0
9 *1353:CLK 0.000647116
10 *1346:CLK 0.000379516
11 *1359:Z 0.000225131
12 *243:112 0.00177493
13 *243:91 0.000760822
14 *243:75 0.00124555
15 *243:71 0.00122849
16 *243:56 0.000873265
17 *243:26 0.00138239
18 *243:16 0.000839795
19 *1334:CLK *254:12 2.59005e-05
20 *1334:CLK *281:102 0.000111861
21 *1346:CLK *276:84 0.000216378
22 *1348:CLK *1349:RN 0
23 *1348:CLK *277:18 0
24 *1348:CLK *277:20 0
25 *1353:CLK *1335:CLK 0
26 *1353:CLK *244:35 0.00032464
27 *243:26 *1335:CLK 0
28 *243:26 *254:12 7.71175e-06
29 *243:26 *281:102 1.15312e-05
30 *243:71 *284:67 0.00110259
31 *243:71 *284:71 3.22131e-05
32 *243:71 *284:75 0.000763418
33 *243:75 *284:75 3.40822e-05
34 *243:112 *1254:A1 0
35 *243:112 *1258:A1 3.98838e-05
36 *243:112 *1351:RN 0.000340423
37 *243:112 *1352:RN 6.99759e-05
38 *1152:I *1363:I 3.73627e-05
39 *1198:B2 *1363:I 8.2746e-05
40 *1243:A2 *243:56 0.000269865
41 *1244:A2 *243:56 0
42 *1246:A2 *243:71 1.49066e-06
43 *1246:A3 *243:71 1.3758e-05
44 *1247:A2 *243:71 0
45 *1261:A3 *1351:CLK 0
46 *1263:A2 *1351:CLK 0.000119234
47 *1263:A2 *1352:CLK 9.026e-05
48 *1333:D *1353:CLK 6.77492e-05
49 *1333:D *243:26 7.24161e-06
50 *1334:D *243:26 0.000780332
51 *1346:D *1346:CLK 1.02578e-05
52 *1348:D *1348:CLK 3.08777e-05
53 *1349:D *243:112 7.45328e-07
54 *1350:D *243:112 9.62991e-05
55 *1351:D *1351:CLK 7.24161e-06
56 *1352:D *1352:CLK 5.29084e-05
57 *26:10 *1346:CLK 0.000116537
58 *94:17 *243:56 0.000517099
59 *96:8 *243:56 0.000142801
60 *168:42 *1363:I 2.40328e-06
61 *168:42 *243:71 2.2086e-05
62 *168:55 *243:71 0
63 *168:66 *243:71 0
64 *172:14 *243:56 0.000180841
65 *225:18 *243:71 0.000317373
66 *225:24 *243:71 0.0026645
67 *225:24 *243:75 0.000420415
68 *230:12 *1352:CLK 0
69 *238:37 *243:71 0.00159549
70 *238:48 *1363:I 0.000438681
71 *238:48 *243:71 5.4634e-05
72 *239:10 *243:56 0.000254652
73 *239:12 *243:56 0.000216296
74 *239:14 *243:56 2.47727e-05
*RES
1 *1359:Z *1346:CLK 11.052 
2 *1359:Z *243:16 4.5 
3 *243:16 *243:26 14.244 
4 *243:26 *1353:CLK 8.832 
5 *243:26 *1333:CLK 4.5 
6 *243:16 *1334:CLK 5.488 
7 *1346:CLK *243:56 16.92 
8 *243:56 *1363:I 5.868 
9 *243:56 *243:71 16.356 
10 *243:71 *243:75 8.68 
11 *243:75 *1352:CLK 6.704 
12 *243:75 *1351:CLK 6.704 
13 *243:71 *243:91 4.5 
14 *243:91 *1350:CLK 4.5 
15 *243:91 *243:112 5.472 
16 *243:112 *1348:CLK 19.732 
17 *243:112 *1349:CLK 4.5 
*END

*D_NET *244 0.0210141
*CONN
*I *1332:CLK I *D gf180mcu_fd_sc_mcu7t5v0__dffsnq_1
*I *1336:CLK I *D gf180mcu_fd_sc_mcu7t5v0__dffrnq_1
*I *1321:CLK I *D gf180mcu_fd_sc_mcu7t5v0__dffrnq_1
*I *1324:CLK I *D gf180mcu_fd_sc_mcu7t5v0__dffrnq_1
*I *1323:CLK I *D gf180mcu_fd_sc_mcu7t5v0__dffrnq_1
*I *1356:CLK I *D gf180mcu_fd_sc_mcu7t5v0__dffsnq_1
*I *1364:I I *D gf180mcu_fd_sc_mcu7t5v0__clkbuf_2
*I *1355:CLK I *D gf180mcu_fd_sc_mcu7t5v0__dffsnq_1
*I *1322:CLK I *D gf180mcu_fd_sc_mcu7t5v0__dffrnq_1
*I *1335:CLK I *D gf180mcu_fd_sc_mcu7t5v0__dffrnq_1
*I *1360:Z O *D gf180mcu_fd_sc_mcu7t5v0__clkbuf_16
*CAP
1 *1332:CLK 0.000333536
2 *1336:CLK 0
3 *1321:CLK 0
4 *1324:CLK 3.28034e-05
5 *1323:CLK 0.00108603
6 *1356:CLK 0
7 *1364:I 0
8 *1355:CLK 3.28034e-05
9 *1322:CLK 0.000545691
10 *1335:CLK 0.00120658
11 *1360:Z 0.000419899
12 *244:107 0.00042019
13 *244:80 0.0015602
14 *244:78 0.00114922
15 *244:69 0.00082997
16 *244:67 0.000352749
17 *244:35 0.00146006
18 *244:27 0.00109352
19 *244:12 0.00169446
20 *1323:CLK *1266:A2 2.53422e-05
21 *1323:CLK *256:12 4.74709e-05
22 *1323:CLK *256:16 0.000512402
23 *1332:CLK *278:31 0.000147129
24 *1332:CLK *278:70 0.00018511
25 *1332:CLK *295:23 8.59638e-05
26 *1335:CLK *1345:RN 0.000283699
27 *1335:CLK *253:12 4.89423e-05
28 *244:12 *253:12 0.000255844
29 *244:67 *253:12 0.000277762
30 *244:67 *295:12 2.18834e-05
31 *244:69 *1166:A2 1.02823e-05
32 *244:69 *295:12 1.08091e-05
33 *244:69 *295:23 6.27827e-05
34 *244:78 *1166:A2 0
35 *244:78 *1266:A2 8.45007e-05
36 *244:80 *1266:A2 8.35771e-05
37 *244:107 *295:23 1.95806e-05
38 *1211:A1 *244:35 5.71374e-05
39 *1212:A3 *244:78 3.95494e-05
40 *1268:A1 *244:78 0.000694477
41 *1269:A3 *244:78 2.22758e-05
42 *1288:A1 *1323:CLK 1.46595e-05
43 *1288:A2 *1323:CLK 0
44 *1288:A2 *244:80 0
45 *1289:A2 *244:80 0.000150768
46 *1289:B *1323:CLK 0
47 *1315:A1 *1335:CLK 0.000317217
48 *1319:A3 *1332:CLK 0.000335795
49 *1319:A3 *244:69 0.000206717
50 *1319:A3 *244:78 0.00192962
51 *1319:A3 *244:107 0.000145228
52 *1322:D *1322:CLK 3.08902e-05
53 *1333:D *1335:CLK 8.73421e-05
54 *1335:D *1335:CLK 0
55 *1353:D *244:35 0.000116355
56 *1353:CLK *1335:CLK 0
57 *1353:CLK *244:35 0.00032464
58 *1355:D *1322:CLK 9.03872e-05
59 *1355:D *244:35 7.45328e-07
60 *1360:I *1335:CLK 5.2971e-05
61 *1368:I *1332:CLK 0.00034974
62 *42:14 *244:80 9.61205e-06
63 *42:25 *244:78 0.000200673
64 *42:25 *244:80 7.26269e-05
65 *42:38 *244:78 0.000111858
66 *111:12 *1335:CLK 2.43212e-05
67 *111:12 *244:12 7.35279e-05
68 *111:12 *244:35 0.000653285
69 *154:10 *244:78 1.72912e-05
70 *186:10 *244:67 0.000151949
71 *186:10 *244:107 0.000103114
72 *236:12 *1322:CLK 4.71416e-05
73 *240:58 *244:67 0
74 *240:58 *244:78 9.23308e-06
75 *241:64 *1335:CLK 4.66458e-05
76 *241:77 *1335:CLK 0.000145536
77 *243:26 *1335:CLK 0
*RES
1 *1360:Z *244:12 12.116 
2 *244:12 *1335:CLK 18.576 
3 *244:12 *244:27 5.64 
4 *244:27 *244:35 15.688 
5 *244:35 *1322:CLK 8.148 
6 *244:35 *1355:CLK 4.728 
7 *244:27 *1364:I 4.5 
8 *1360:Z *244:67 15.248 
9 *244:67 *244:69 1.292 
10 *244:69 *1356:CLK 4.5 
11 *244:69 *244:78 8.816 
12 *244:78 *244:80 3.268 
13 *244:80 *1323:CLK 22.316 
14 *244:80 *1324:CLK 4.728 
15 *244:78 *1321:CLK 4.5 
16 *244:67 *244:107 0.988 
17 *244:107 *1336:CLK 4.5 
18 *244:107 *1332:CLK 8.832 
*END

*D_NET *245 0.017658
*CONN
*I *1325:CLK I *D gf180mcu_fd_sc_mcu7t5v0__dffsnq_1
*I *1327:CLK I *D gf180mcu_fd_sc_mcu7t5v0__dffsnq_1
*I *1328:CLK I *D gf180mcu_fd_sc_mcu7t5v0__dffsnq_1
*I *1329:CLK I *D gf180mcu_fd_sc_mcu7t5v0__dffsnq_1
*I *1347:CLK I *D gf180mcu_fd_sc_mcu7t5v0__dffrnq_1
*I *1345:CLK I *D gf180mcu_fd_sc_mcu7t5v0__dffrnq_1
*I *1326:CLK I *D gf180mcu_fd_sc_mcu7t5v0__dffsnq_1
*I *1330:CLK I *D gf180mcu_fd_sc_mcu7t5v0__dffsnq_1
*I *1331:CLK I *D gf180mcu_fd_sc_mcu7t5v0__dffsnq_1
*I *1361:Z O *D gf180mcu_fd_sc_mcu7t5v0__clkbuf_16
*CAP
1 *1325:CLK 0.000530248
2 *1327:CLK 0
3 *1328:CLK 0
4 *1329:CLK 0.000144586
5 *1347:CLK 0
6 *1345:CLK 0.000344171
7 *1326:CLK 5.46724e-05
8 *1330:CLK 0
9 *1331:CLK 0.000381159
10 *1361:Z 0.000260236
11 *245:55 0.000560701
12 *245:51 0.000921772
13 *245:47 0.0012872
14 *245:41 0.0010821
15 *245:39 0.00103329
16 *245:28 0.000677432
17 *245:19 0.000556808
18 *245:6 0.000722921
19 *1325:CLK *1325:SETN 0
20 *1325:CLK *282:102 0
21 *1331:CLK *1296:A3 0
22 *1331:CLK *1300:A2 0
23 *1331:CLK *257:29 0
24 *1331:CLK *257:31 0
25 *1331:CLK *284:67 0.00150378
26 *1345:CLK *254:12 0
27 *1345:CLK *281:113 0.0012495
28 *245:6 *1274:A1 8.03447e-05
29 *245:6 *1295:B 0.000848854
30 *245:6 *257:44 8.02751e-06
31 *245:6 *278:91 6.25174e-05
32 *245:19 *1295:B 0.000407791
33 *245:19 *278:91 6.26621e-05
34 *245:28 *1292:I1 2.11326e-05
35 *245:28 *1295:B 6.00599e-05
36 *245:28 *1301:A1 0.000369763
37 *245:28 *269:8 1.39108e-05
38 *245:28 *278:91 0.000193915
39 *245:28 *282:102 2.9378e-06
40 *245:39 *1327:SETN 8.81341e-06
41 *245:39 *269:8 5.83634e-05
42 *245:39 *282:102 6.63909e-05
43 *245:41 *1294:I1 3.56597e-05
44 *245:41 *1328:SETN 0.000355995
45 *245:41 *1403:I 0.000102986
46 *245:41 *282:96 0.00127023
47 *245:41 *282:102 0
48 *245:47 *1294:I1 2.08148e-05
49 *245:47 *1328:SETN 8.84331e-05
50 *245:51 *281:113 0
51 *245:55 *281:113 3.35674e-05
52 *1241:A2 *1345:CLK 0.000141897
53 *1296:A1 *245:6 0.000964355
54 *1302:B *245:28 0.00032464
55 *1313:A1 *245:6 9.58397e-05
56 *1326:D *245:28 0.000317494
57 *1326:D *245:39 2.6126e-05
58 *1328:D *245:47 0
59 *1345:D *1345:CLK 0.000124462
60 *1347:D *1345:CLK 2.05953e-05
61 *238:12 *1345:CLK 0.000158878
62 *238:20 *1345:CLK 0
*RES
1 *1361:Z *245:6 8.68 
2 *245:6 *1331:CLK 17.224 
3 *245:6 *245:19 1.14 
4 *245:19 *1330:CLK 4.5 
5 *245:19 *245:28 4.56 
6 *245:28 *1326:CLK 4.88 
7 *245:28 *245:39 5.64 
8 *245:39 *245:41 4.636 
9 *245:41 *245:47 9.516 
10 *245:47 *245:51 7.768 
11 *245:51 *245:55 5.944 
12 *245:55 *1345:CLK 17.908 
13 *245:55 *1347:CLK 4.5 
14 *245:51 *1329:CLK 9.988 
15 *245:47 *1328:CLK 4.5 
16 *245:41 *1327:CLK 9 
17 *245:39 *1325:CLK 12.572 
*END

*D_NET *246 0.00888241
*CONN
*I *1303:A1 I *D gf180mcu_fd_sc_mcu7t5v0__nand2_1
*I *1304:A2 I *D gf180mcu_fd_sc_mcu7t5v0__oai211_1
*I *1307:A2 I *D gf180mcu_fd_sc_mcu7t5v0__nand3_1
*I *1298:A2 I *D gf180mcu_fd_sc_mcu7t5v0__nand2_1
*I *1295:A1 I *D gf180mcu_fd_sc_mcu7t5v0__oai21_1
*I *1274:A1 I *D gf180mcu_fd_sc_mcu7t5v0__xnor2_1
*I *1296:A2 I *D gf180mcu_fd_sc_mcu7t5v0__oai31_1
*I *1373:Z O *D gf180mcu_fd_sc_mcu7t5v0__dlyb_1
*CAP
1 *1303:A1 0.000180825
2 *1304:A2 0
3 *1307:A2 0.000246893
4 *1298:A2 0
5 *1295:A1 0
6 *1274:A1 0.000118806
7 *1296:A2 0.000241013
8 *1373:Z 0.000248314
9 *246:29 0.000118806
10 *246:16 0.000576091
11 *246:14 0.000499013
12 *246:12 0.0005162
13 *246:10 0.000280386
14 *246:8 0.000604151
15 *1274:A1 *1273:A1 0.00125741
16 *1296:A2 *1295:B 0.000433917
17 *1296:A2 *1313:B 0
18 *1303:A1 *257:10 9.97816e-05
19 *1303:A1 *273:10 1.45899e-05
20 *1307:A2 *1307:A3 0.000213945
21 *246:8 *257:10 3.73535e-05
22 *246:8 *284:61 0.000354765
23 *246:10 *257:10 0.000187682
24 *246:10 *257:14 2.95445e-05
25 *246:10 *295:36 0.000151949
26 *246:12 *295:36 0.000596622
27 *246:14 *1300:A2 5.13352e-06
28 *246:14 *278:70 0
29 *246:14 *295:36 0.000634999
30 *246:16 *1300:A2 2.08148e-05
31 *246:16 *1313:B 0
32 *246:16 *257:31 0
33 *246:16 *278:70 0
34 rx_data_o[7] *246:8 0
35 *1296:A1 *1274:A1 0.000604634
36 *1297:I0 *1296:A2 5.1289e-05
37 *1303:A2 *1303:A1 0.000317503
38 *1303:A2 *246:8 4.39253e-05
39 *1304:C *1303:A1 2.93969e-05
40 *1304:C *246:8 4.58601e-06
41 *1313:A1 *1274:A1 8.17271e-05
42 *245:6 *1274:A1 8.03447e-05
*RES
1 *1373:Z *246:8 11.356 
2 *246:8 *246:10 1.596 
3 *246:10 *246:12 1.444 
4 *246:12 *246:14 1.748 
5 *246:14 *246:16 2.052 
6 *246:16 *1296:A2 10.824 
7 *246:16 *246:29 4.5 
8 *246:29 *1274:A1 7.768 
9 *246:29 *1295:A1 4.5 
10 *246:14 *1298:A2 9 
11 *246:12 *1307:A2 10.9 
12 *246:10 *1304:A2 9 
13 *246:8 *1303:A1 10.672 
*END

*D_NET *247 0.00148026
*CONN
*I *1176:A1 I *D gf180mcu_fd_sc_mcu7t5v0__xor2_1
*I *1192:A1 I *D gf180mcu_fd_sc_mcu7t5v0__xor2_1
*I *1374:Z O *D gf180mcu_fd_sc_mcu7t5v0__dlyb_1
*CAP
1 *1176:A1 0.000184801
2 *1192:A1 0.0001622
3 *1374:Z 0.000196347
4 *247:8 0.000543347
5 *1176:A1 *248:14 0
6 *1192:A1 *1161:A2 2.22657e-05
7 *247:8 *1161:A2 0.000148889
8 *1164:A2 *1192:A1 0
9 *1200:A2 *1176:A1 0.000158886
10 *1200:A2 *1192:A1 5.3266e-05
11 *1219:A1 *1192:A1 1.02578e-05
12 *1219:A2 *1192:A1 0
13 *1389:I *247:8 0
14 *224:56 *1176:A1 0
*RES
1 *1374:Z *247:8 6.02 
2 *247:8 *1192:A1 5.64 
3 *247:8 *1176:A1 14.944 
*END

*D_NET *248 0.00759111
*CONN
*I *1198:A1 I *D gf180mcu_fd_sc_mcu7t5v0__aoi22_1
*I *1164:A1 I *D gf180mcu_fd_sc_mcu7t5v0__xor2_1
*I *1142:I I *D gf180mcu_fd_sc_mcu7t5v0__clkinv_1
*I *1375:Z O *D gf180mcu_fd_sc_mcu7t5v0__dlyb_1
*CAP
1 *1198:A1 0.00101558
2 *1164:A1 0
3 *1142:I 0.000577465
4 *1375:Z 0.00215634
5 *248:14 0.00171823
6 *1142:I *250:8 6.95146e-05
7 *1142:I *250:23 2.08148e-05
8 *1198:A1 *1179:A1 0
9 *1198:A1 *279:18 0
10 *1198:A1 *285:10 0
11 *1198:A1 *286:10 0.000110818
12 *248:14 *1161:A2 8.49277e-05
13 *248:14 *250:8 0.000156903
14 *248:14 *251:10 4.50449e-05
15 *248:14 *252:12 4.50449e-05
16 *248:14 *285:10 4.50449e-05
17 *1161:A1 *248:14 0.000203975
18 *1176:A1 *248:14 0
19 *1176:A2 *1142:I 0
20 *1177:A1 *248:14 2.59005e-05
21 *1177:A2 *248:14 0
22 *1177:A4 *248:14 0.000196837
23 *1189:A2 *248:14 0
24 *1190:A1 *1142:I 0.000127688
25 *1190:A2 *1142:I 0
26 *1193:A2 *1198:A1 1.52768e-05
27 *1200:A1 *1198:A1 0
28 *1200:A2 *248:14 0
29 *1200:A3 *248:14 0.000193308
30 *1201:A1 *1198:A1 0
31 *1203:A2 *1142:I 0.000512533
32 *1377:I *248:14 0
33 *1378:I *248:14 0
34 *1379:I *248:14 0
35 *1391:I *248:14 0
36 *1395:I *248:14 0
37 *231:46 *1142:I 0
38 *235:46 *1142:I 0.000269865
*RES
1 *1375:Z *248:14 21.936 
2 *248:14 *1142:I 18.136 
3 *248:14 *1164:A1 4.5 
4 *1375:Z *1198:A1 24.08 
*END

*D_NET *249 0.00711715
*CONN
*I *1172:A1 I *D gf180mcu_fd_sc_mcu7t5v0__xor2_1
*I *1188:A1 I *D gf180mcu_fd_sc_mcu7t5v0__xnor2_1
*I *1376:Z O *D gf180mcu_fd_sc_mcu7t5v0__dlyb_1
*CAP
1 *1172:A1 3.28034e-05
2 *1188:A1 0.000398827
3 *1376:Z 0.00174611
4 *249:20 0.00217774
5 *249:20 *1341:RN 0.00015196
6 *249:20 *281:33 0.000159478
7 *1144:I *1188:A1 5.27102e-05
8 *1172:A2 *249:20 0.00022078
9 *1231:A1 *249:20 4.60244e-05
10 *1231:B *249:20 3.07734e-05
11 *1237:A4 *1172:A1 0
12 *1237:A4 *249:20 0.00032464
13 *159:27 *249:20 0
14 *233:6 *249:20 9.82435e-05
15 *234:8 *249:20 0.000790305
16 *235:6 *249:20 0.000212474
17 *235:25 *249:20 0.00033012
18 *235:40 *1188:A1 2.26535e-05
19 *235:40 *249:20 0.000321497
*RES
1 *1376:Z *249:20 27.94 
2 *249:20 *1188:A1 16.464 
3 *249:20 *1172:A1 4.728 
*END

*D_NET *250 0.00515867
*CONN
*I *1202:A1 I *D gf180mcu_fd_sc_mcu7t5v0__aoi22_1
*I *1204:A1 I *D gf180mcu_fd_sc_mcu7t5v0__oai22_1
*I *1163:A1 I *D gf180mcu_fd_sc_mcu7t5v0__xor2_1
*I *1377:Z O *D gf180mcu_fd_sc_mcu7t5v0__dlyb_1
*CAP
1 *1202:A1 0
2 *1204:A1 2.18757e-05
3 *1163:A1 3.64426e-05
4 *1377:Z 0.000571481
5 *250:23 0.000445613
6 *250:8 0.00103166
7 *1204:A1 *1162:A1 0.000498371
8 *250:8 *251:10 0
9 *1142:I *250:8 6.95146e-05
10 *1142:I *250:23 2.08148e-05
11 *1163:A2 *1163:A1 1.5015e-05
12 *1177:A1 *250:8 0.00021377
13 *1181:A1 *250:8 0.0002557
14 *1181:A1 *250:23 0.000490575
15 *1190:B1 *1163:A1 2.40654e-06
16 *1200:A4 *1204:A1 2.2499e-05
17 *1203:A2 *250:23 0.000250286
18 *1203:A4 *250:23 0.000351486
19 *1204:A2 *1204:A1 0.000269865
20 *1206:A2 *1204:A1 8.62306e-05
21 *1207:A4 *250:23 0.000213178
22 *88:12 *250:23 0.000134982
23 *235:46 *250:23 0
24 *248:14 *250:8 0.000156903
*RES
1 *1377:Z *250:8 13.332 
2 *250:8 *1163:A1 9.228 
3 *250:8 *250:23 10.276 
4 *250:23 *1204:A1 14.792 
5 *250:23 *1202:A1 4.5 
*END

*D_NET *251 0.00766597
*CONN
*I *1205:A1 I *D gf180mcu_fd_sc_mcu7t5v0__oai222_1
*I *1162:A1 I *D gf180mcu_fd_sc_mcu7t5v0__xor2_1
*I *1202:B1 I *D gf180mcu_fd_sc_mcu7t5v0__aoi22_1
*I *1378:Z O *D gf180mcu_fd_sc_mcu7t5v0__dlyb_1
*CAP
1 *1205:A1 0
2 *1162:A1 0.000196386
3 *1202:B1 1.24348e-05
4 *1378:Z 0.00065447
5 *251:16 0.000389274
6 *251:10 0.000834923
7 *251:10 *252:12 0
8 *1163:A2 *251:10 0.000140918
9 *1177:A1 *251:10 2.37298e-05
10 *1180:A2 *1162:A1 0.000231988
11 *1181:A1 *1162:A1 0.000695314
12 *1181:A1 *251:10 0.000172618
13 *1181:A1 *251:16 0.000190346
14 *1199:A2 *1162:A1 6.05336e-05
15 *1200:A2 *251:10 0
16 *1200:A4 *1162:A1 1.52094e-05
17 *1200:A4 *251:10 0.00185423
18 *1200:A4 *251:16 0.000121142
19 *1202:B2 *251:16 0.000523959
20 *1203:A3 *1202:B1 7.98466e-05
21 *1203:A4 *1202:B1 7.3227e-05
22 *1204:A1 *1162:A1 0.000498371
23 *1206:A2 *1162:A1 1.81333e-05
24 *1206:A2 *251:16 4.71425e-05
25 *89:29 *251:10 3.06951e-05
26 *89:29 *251:16 0.000389591
27 *237:22 *1162:A1 0.00036645
28 *248:14 *251:10 4.50449e-05
29 *250:8 *251:10 0
*RES
1 *1378:Z *251:10 15.384 
2 *251:10 *251:16 3.116 
3 *251:16 *1202:B1 9.228 
4 *251:16 *1162:A1 13.256 
5 *251:10 *1205:A1 9 
*END

*D_NET *252 0.00239875
*CONN
*I *1171:A1 I *D gf180mcu_fd_sc_mcu7t5v0__xor2_1
*I *1146:I I *D gf180mcu_fd_sc_mcu7t5v0__clkinv_1
*I *1379:Z O *D gf180mcu_fd_sc_mcu7t5v0__dlyb_1
*CAP
1 *1171:A1 0.000148774
2 *1146:I 0
3 *1379:Z 0.000676596
4 *252:12 0.000825371
5 *252:12 *289:10 0
6 *1171:A2 *1171:A1 2.76081e-05
7 *1184:A1 *1171:A1 1.52768e-05
8 *1184:A2 *1171:A1 5.59708e-05
9 *1184:A3 *252:12 0.000366335
10 *1187:A3 *252:12 7.98048e-05
11 *1200:A3 *252:12 2.22657e-05
12 *1200:A4 *252:12 5.24869e-05
13 *1201:A4 *252:12 4.18327e-05
14 *1205:C1 *1171:A1 4.13847e-05
15 *248:14 *252:12 4.50449e-05
16 *251:10 *252:12 0
*RES
1 *1379:Z *252:12 17.756 
2 *252:12 *1146:I 4.5 
3 *252:12 *1171:A1 5.64 
*END

*D_NET *253 0.00812189
*CONN
*I *1185:A1 I *D gf180mcu_fd_sc_mcu7t5v0__xor2_1
*I *1195:A1 I *D gf180mcu_fd_sc_mcu7t5v0__xor2_1
*I *1380:Z O *D gf180mcu_fd_sc_mcu7t5v0__dlyb_1
*CAP
1 *1185:A1 0.000184862
2 *1195:A1 4.82045e-05
3 *1380:Z 0.00235277
4 *253:12 0.00258583
5 *1185:A1 *281:102 4.46358e-05
6 *1195:A1 *281:102 1.45682e-05
7 *253:12 *1267:A2 0.000107191
8 *253:12 *1311:I1 0.000242872
9 *253:12 *1336:RN 0.000134636
10 *253:12 *284:31 3.94946e-05
11 *253:12 *290:8 0.000234051
12 *253:12 *295:12 0
13 *1165:A1 *253:12 0.000146806
14 *1185:A2 *1185:A1 0.00026473
15 *1185:A2 *1195:A1 9.92577e-05
16 *1310:A2 *253:12 5.14406e-05
17 *1320:A1 *253:12 0.000269857
18 *1333:D *253:12 6.22927e-05
19 *1335:CLK *253:12 4.89423e-05
20 *84:26 *253:12 0.000194606
21 *168:27 *1185:A1 1.15275e-05
22 *186:10 *253:12 0.000380912
23 *195:8 *253:12 2.53131e-05
24 *241:11 *253:12 4.34843e-05
25 *244:12 *253:12 0.000255844
26 *244:67 *253:12 0.000277762
*RES
1 *1380:Z *253:12 32.044 
2 *253:12 *1195:A1 5.032 
3 *253:12 *1185:A1 6.248 
*END

*D_NET *254 0.00893386
*CONN
*I *1178:A1 I *D gf180mcu_fd_sc_mcu7t5v0__xor2_1
*I *1147:I I *D gf180mcu_fd_sc_mcu7t5v0__clkinv_1
*I *1381:Z O *D gf180mcu_fd_sc_mcu7t5v0__dlyb_1
*CAP
1 *1178:A1 0
2 *1147:I 0.000204579
3 *1381:Z 0.00239022
4 *254:12 0.0025948
5 *254:12 *281:102 0
6 *254:12 *281:113 0
7 *1170:A1 *1147:I 0.000143649
8 *1170:A1 *254:12 0.00095033
9 *1170:A2 *254:12 0.00109034
10 *1178:A2 *1147:I 0.000206341
11 *1180:A3 *1147:I 9.88736e-06
12 *1186:A1 *254:12 4.72461e-05
13 *1240:A2 *254:12 0.000805973
14 *1241:A2 *254:12 5.14116e-06
15 *1334:CLK *254:12 2.59005e-05
16 *1345:D *254:12 6.05951e-05
17 *1345:CLK *254:12 0
18 *1347:D *254:12 0.000141897
19 *1366:I *254:12 0.000113472
20 *168:27 *254:12 2.23477e-05
21 *238:12 *254:12 8.7332e-05
22 *241:21 *1147:I 2.61046e-05
23 *243:26 *254:12 7.71175e-06
*RES
1 *1381:Z *254:12 28.228 
2 *254:12 *1147:I 10.976 
3 *254:12 *1178:A1 9 
*END

*D_NET *255 0.00533844
*CONN
*I *1194:A1 I *D gf180mcu_fd_sc_mcu7t5v0__aoi22_1
*I *1149:I I *D gf180mcu_fd_sc_mcu7t5v0__clkinv_1
*I *1382:Z O *D gf180mcu_fd_sc_mcu7t5v0__dlyb_1
*CAP
1 *1194:A1 0
2 *1149:I 0.000113915
3 *1382:Z 0.00147158
4 *255:14 0.00158549
5 *255:14 *1191:A1 0.000293723
6 *255:14 *1197:A1 0
7 *255:14 *279:12 0
8 *255:14 *287:12 0.00036477
9 *1194:A2 *1149:I 3.08902e-05
10 *1194:A2 *255:14 0.000500461
11 *1194:B2 *1149:I 1.02578e-05
12 *1194:B2 *255:14 0.000101491
13 *1197:A2 *255:14 0
14 *1199:C *255:14 0
15 *1203:A3 *1149:I 0.000255722
16 *1393:I *255:14 5.37083e-05
17 *226:30 *1149:I 9.60894e-06
18 *229:27 *255:14 0.000171927
19 *230:12 *255:14 0
20 *230:32 *255:14 0
21 *238:37 *255:14 1.20079e-05
22 *238:48 *1149:I 8.62664e-05
23 *239:14 *255:14 1.28891e-05
24 *239:33 *255:14 0.000263727
*RES
1 *1382:Z *255:14 25.128 
2 *255:14 *1149:I 5.716 
3 *255:14 *1194:A1 4.5 
*END

*D_NET *256 0.0107729
*CONN
*I *1266:A2 I *D gf180mcu_fd_sc_mcu7t5v0__nand2_1
*I *1288:B I *D gf180mcu_fd_sc_mcu7t5v0__oai21_1
*I *1286:A1 I *D gf180mcu_fd_sc_mcu7t5v0__and2_1
*I *1155:I I *D gf180mcu_fd_sc_mcu7t5v0__clkinv_1
*I *1383:Z O *D gf180mcu_fd_sc_mcu7t5v0__dlyb_1
*CAP
1 *1266:A2 0.00188372
2 *1288:B 0
3 *1286:A1 5.20365e-05
4 *1155:I 0.000361563
5 *1383:Z 0.000471996
6 *256:16 0.000870487
7 *256:12 0.000612745
8 *256:10 0.00251157
9 *1155:I *1265:A2 3.05986e-05
10 *1155:I *1354:SETN 0.000673596
11 *1266:A2 *1214:A1 0
12 *1266:A2 *1270:A1 0
13 *256:10 *1372:I 5.71835e-05
14 *256:10 *283:10 0.000339075
15 *256:10 *283:34 0.000159374
16 *256:12 *283:10 0.000275105
17 *256:16 *1354:SETN 0.000703606
18 *256:16 *283:10 0.000395159
19 *1212:A3 *1266:A2 0.000164678
20 *1215:A3 *1266:A2 2.40867e-05
21 *1269:A2 *1266:A2 5.02235e-05
22 *1269:A3 *1266:A2 0.000111858
23 *1270:A2 *1266:A2 0.000111867
24 *1271:I *1266:A2 0
25 *1319:A3 *1266:A2 5.29159e-05
26 *1321:D *1266:A2 2.05953e-05
27 *1323:CLK *1266:A2 2.53422e-05
28 *1323:CLK *256:12 4.74709e-05
29 *1323:CLK *256:16 0.000512402
30 *1386:I *256:10 0
31 *154:10 *1266:A2 8.55327e-05
32 *244:78 *1266:A2 8.45007e-05
33 *244:80 *1266:A2 8.35771e-05
*RES
1 *1383:Z *256:10 12.8 
2 *256:10 *256:12 1.596 
3 *256:12 *256:16 6.536 
4 *256:16 *1155:I 11.888 
5 *256:16 *1286:A1 9.228 
6 *256:12 *1288:B 9 
7 *256:10 *1266:A2 21.312 
*END

*D_NET *257 0.00985416
*CONN
*I *1304:B I *D gf180mcu_fd_sc_mcu7t5v0__oai211_1
*I *1299:A1 I *D gf180mcu_fd_sc_mcu7t5v0__nor2_1
*I *1300:A1 I *D gf180mcu_fd_sc_mcu7t5v0__aoi21_1
*I *1295:A2 I *D gf180mcu_fd_sc_mcu7t5v0__oai21_1
*I *1273:A1 I *D gf180mcu_fd_sc_mcu7t5v0__xnor2_1
*I *1296:A3 I *D gf180mcu_fd_sc_mcu7t5v0__oai31_1
*I *1307:A3 I *D gf180mcu_fd_sc_mcu7t5v0__nand3_1
*I *1384:Z O *D gf180mcu_fd_sc_mcu7t5v0__dlyb_1
*CAP
1 *1304:B 1.60402e-05
2 *1299:A1 0
3 *1300:A1 6.82197e-05
4 *1295:A2 0
5 *1273:A1 0.00020075
6 *1296:A3 0.000257244
7 *1307:A3 0.000261442
8 *1384:Z 0.000231745
9 *257:44 0.000236975
10 *257:31 0.000514314
11 *257:29 0.00040129
12 *257:25 0.000288936
13 *257:14 0.000525315
14 *257:10 0.000334949
15 *1273:A1 *278:91 0.000214408
16 *1296:A3 *284:67 0
17 *1300:A1 *1300:A2 0.000194266
18 *1304:B *1291:S 8.55242e-05
19 *1304:B *1307:A1 2.6126e-05
20 *1307:A3 *278:70 0.000379274
21 *257:10 *1300:A2 9.26357e-05
22 *257:10 *273:10 1.90639e-05
23 *257:14 *1300:A2 0.00023088
24 *257:14 *295:36 0.00090738
25 *257:29 *1300:A2 0.000489911
26 *257:31 *1300:A2 0.000151957
27 *257:44 *278:91 0.000433917
28 *1274:A1 *1273:A1 0.00125741
29 *1277:A1 *1273:A1 0.000317494
30 *1296:A1 *1273:A1 0.000504192
31 *1296:A1 *257:44 2.79476e-05
32 *1296:B *257:44 0.00026286
33 *1299:A2 *1307:A3 7.24161e-06
34 *1299:A2 *257:25 3.95687e-05
35 *1303:A1 *257:10 9.97816e-05
36 *1303:A2 *257:10 1.23313e-05
37 *1304:C *257:10 3.95795e-05
38 *1306:A2 *1304:B 9.88736e-06
39 *1307:A2 *1307:A3 0.000213945
40 *1313:A1 *1273:A1 6.80238e-06
41 *1331:CLK *1296:A3 0
42 *1331:CLK *257:29 0
43 *1331:CLK *257:31 0
44 *1368:I *1300:A1 0.000194266
45 *1368:I *1307:A3 3.56875e-05
46 *245:6 *257:44 8.02751e-06
47 *246:8 *257:10 3.73535e-05
48 *246:10 *257:10 0.000187682
49 *246:10 *257:14 2.95445e-05
50 *246:16 *257:31 0
*RES
1 *1384:Z *257:10 10.976 
2 *257:10 *257:14 6.856 
3 *257:14 *1307:A3 7.008 
4 *257:14 *257:25 1.064 
5 *257:25 *257:29 5.792 
6 *257:29 *257:31 1.596 
7 *257:31 *1296:A3 10.292 
8 *257:31 *257:44 5.64 
9 *257:44 *1273:A1 9.06 
10 *257:44 *1295:A2 4.5 
11 *257:29 *1300:A1 10.14 
12 *257:25 *1299:A1 4.5 
13 *257:10 *1304:B 9.228 
*END

*D_NET *258 0.00223695
*CONN
*I *1157:I I *D gf180mcu_fd_sc_mcu7t5v0__clkinv_1
*I *1280:A1 I *D gf180mcu_fd_sc_mcu7t5v0__nand2_1
*I *1385:Z O *D gf180mcu_fd_sc_mcu7t5v0__dlyb_1
*CAP
1 *1157:I 0
2 *1280:A1 0.000203097
3 *1385:Z 0.00021705
4 *258:8 0.000420147
5 *1280:A1 *1281:A1 0.000104577
6 *1280:A1 *262:14 3.30388e-05
7 *258:8 *1281:A1 4.78829e-05
8 *258:8 *1396:I 0.000654598
9 *1284:B *1280:A1 8.22357e-06
10 *42:14 *258:8 0.000453575
11 *43:14 *1280:A1 0
12 *197:39 *1280:A1 5.63729e-05
13 *197:39 *258:8 3.83879e-05
*RES
1 *1385:Z *258:8 12.572 
2 *258:8 *1280:A1 10.52 
3 *258:8 *1157:I 9 
*END

*D_NET *259 0.00192905
*CONN
*I *1372:I I *D gf180mcu_fd_sc_mcu7t5v0__dlyb_1
*I *1386:Z O *D gf180mcu_fd_sc_mcu7t5v0__dlyb_1
*CAP
1 *1372:I 0.000512546
2 *1386:Z 0.000512546
3 *1372:I *1371:I 0.000846773
4 *1383:I *1372:I 0
5 *1386:I *1372:I 0
6 *256:10 *1372:I 5.71835e-05
*RES
1 *1386:Z *1372:I 13.028 
*END

*D_NET *260 0.00118715
*CONN
*I *1264:A2 I *D gf180mcu_fd_sc_mcu7t5v0__or2_1
*I *1387:Z O *D gf180mcu_fd_sc_mcu7t5v0__dlyb_1
*CAP
1 *1264:A2 0.000593577
2 *1387:Z 0.000593577
*RES
1 *1387:Z *1264:A2 21.496 
*END

*D_NET *261 0.00139295
*CONN
*I *1214:A1 I *D gf180mcu_fd_sc_mcu7t5v0__and2_1
*I *1215:A2 I *D gf180mcu_fd_sc_mcu7t5v0__nor3_1
*I *1388:Z O *D gf180mcu_fd_sc_mcu7t5v0__dlyb_1
*CAP
1 *1214:A1 4.80874e-05
2 *1215:A2 9.04677e-05
3 *1388:Z 3.50225e-05
4 *261:8 0.000173578
5 *1214:A1 *1214:A2 0.000483795
6 *1214:A1 *1398:I 0.000310356
7 *1214:A1 *291:14 2.74753e-05
8 *1214:A1 *291:21 3.73535e-05
9 *1215:A2 *291:14 5.59457e-05
10 *261:8 *291:14 5.19228e-05
11 *1216:A2 *1215:A2 4.37699e-05
12 *1216:A2 *261:8 2.71239e-05
13 *1266:A2 *1214:A1 0
14 *154:10 *1215:A2 8.05328e-06
*RES
1 *1388:Z *261:8 9.38 
2 *261:8 *1215:A2 9.684 
3 *261:8 *1214:A1 10.292 
*END

*D_NET *262 0.00965325
*CONN
*I *1278:A1 I *D gf180mcu_fd_sc_mcu7t5v0__oai22_1
*I *1396:I I *D gf180mcu_fd_sc_mcu7t5v0__dlyb_1
*I *1281:A1 I *D gf180mcu_fd_sc_mcu7t5v0__nand2_1
*I *1160:ZN O *D gf180mcu_fd_sc_mcu7t5v0__nand2_1
*CAP
1 *1278:A1 0.000588424
2 *1396:I 0.000351758
3 *1281:A1 0.000191951
4 *1160:ZN 0.000250048
5 *262:14 0.00101536
6 *262:8 0.00131012
7 *1278:A1 *1141:I 5.25982e-05
8 *1278:A1 *1166:A2 0
9 *1278:A1 *283:54 0.000302526
10 *1278:A1 *294:10 7.79072e-05
11 *1281:A1 *1369:I 0.000214589
12 *1396:I *1369:I 0.000568463
13 *1396:I *1371:I 3.02712e-05
14 *1166:A1 *1278:A1 3.36987e-05
15 *1167:A1 *1396:I 0.000181432
16 *1212:A1 *262:14 0.000173439
17 *1269:A1 *1278:A1 0
18 *1278:A2 *1278:A1 0.000331102
19 *1280:A1 *1281:A1 0.000104577
20 *1280:A1 *262:14 3.30388e-05
21 *1280:A2 *262:14 0.000191268
22 *1283:A2 *1281:A1 8.9689e-06
23 *1284:B *1281:A1 0.000273627
24 *1284:B *262:14 0
25 *1285:I0 *1281:A1 1.91917e-06
26 *1385:I *1396:I 0.000342528
27 *41:55 *1396:I 0.000213194
28 *41:55 *262:14 0.000182967
29 *43:22 *262:14 0.000342229
30 *43:29 *262:14 0.00015424
31 *83:15 *262:14 5.14116e-06
32 *83:26 *1278:A1 0
33 *83:26 *262:8 0.000519319
34 *83:26 *262:14 0
35 *85:8 *1278:A1 0.000269857
36 *194:19 *1278:A1 0.000385416
37 *194:19 *262:14 0.000207163
38 *197:39 *1281:A1 4.16296e-05
39 *240:66 *1278:A1 0
40 *258:8 *1281:A1 4.78829e-05
41 *258:8 *1396:I 0.000654598
*RES
1 *1160:ZN *262:8 6.78 
2 *262:8 *262:14 9.364 
3 *262:14 *1281:A1 11.432 
4 *262:14 *1396:I 15.004 
5 *262:8 *1278:A1 19.58 
*END

*D_NET *263 0.0020265
*CONN
*I *1397:I I *D gf180mcu_fd_sc_mcu7t5v0__dlyb_1
*I *1214:Z O *D gf180mcu_fd_sc_mcu7t5v0__and2_1
*CAP
1 *1397:I 0.000461684
2 *1214:Z 0.000461684
3 *1397:I *1399:I 0.00011955
4 *1397:I *283:48 0.000251988
5 *1397:I *284:31 0.000359455
6 *1216:A1 *1397:I 0.000372137
*RES
1 *1214:Z *1397:I 13.864 
*END

*D_NET *264 0.0010834
*CONN
*I *1398:I I *D gf180mcu_fd_sc_mcu7t5v0__dlyb_1
*I *1215:ZN O *D gf180mcu_fd_sc_mcu7t5v0__nor3_1
*CAP
1 *1398:I 0.000249929
2 *1215:ZN 0.000249929
3 *1398:I *291:14 0.00013862
4 *1214:A1 *1398:I 0.000310356
5 *1271:I *1398:I 0.000134564
*RES
1 *1215:ZN *1398:I 20.432 
*END

*D_NET *265 0.000430904
*CONN
*I *1399:I I *D gf180mcu_fd_sc_mcu7t5v0__dlyb_1
*I *1216:ZN O *D gf180mcu_fd_sc_mcu7t5v0__nor2_1
*CAP
1 *1399:I 2.42471e-05
2 *1216:ZN 2.42471e-05
3 *1399:I *284:31 0.00026286
4 *1397:I *1399:I 0.00011955
*RES
1 *1216:ZN *1399:I 9.684 
*END

*D_NET *266 0.00179538
*CONN
*I *1400:I I *D gf180mcu_fd_sc_mcu7t5v0__dlyb_1
*I *1291:I1 I *D gf180mcu_fd_sc_mcu7t5v0__mux2_2
*I *1325:Q O *D gf180mcu_fd_sc_mcu7t5v0__dffsnq_1
*CAP
1 *1400:I 0.000115949
2 *1291:I1 6.87057e-05
3 *1325:Q 0.000297979
4 *266:10 0.000482634
5 *1291:I1 *1325:SETN 0
6 *1291:I1 *1401:I 0.000193942
7 *1400:I *1325:SETN 0
8 *1400:I *1401:I 0.000479091
9 *266:10 *1325:SETN 4.74709e-05
10 rx_data_o[0] *1400:I 0
11 rx_data_o[0] *266:10 3.86561e-05
12 *1325:D *266:10 7.09482e-05
*RES
1 *1325:Q *266:10 16.008 
2 *266:10 *1291:I1 5.032 
3 *266:10 *1400:I 5.792 
*END

*D_NET *267 0.00578305
*CONN
*I *1401:I I *D gf180mcu_fd_sc_mcu7t5v0__dlyb_1
*I *1291:I0 I *D gf180mcu_fd_sc_mcu7t5v0__mux2_2
*I *1292:I1 I *D gf180mcu_fd_sc_mcu7t5v0__mux2_2
*I *1326:Q O *D gf180mcu_fd_sc_mcu7t5v0__dffsnq_1
*CAP
1 *1401:I 0.000546498
2 *1291:I0 0
3 *1292:I1 0.000419252
4 *1326:Q 4.242e-05
5 *267:23 0.000610536
6 *267:8 0.00052571
7 *1292:I1 *1293:S 9.50296e-06
8 *1292:I1 *1325:SETN 0.00049905
9 *1292:I1 *1402:I 3.37776e-05
10 *1292:I1 *269:8 0.000369754
11 *1292:I1 *269:19 1.45899e-05
12 *1292:I1 *278:91 0.00023033
13 *1292:I1 *282:102 0.00108881
14 *1401:I *1291:S 9.88736e-06
15 *1401:I *1325:SETN 0.00033338
16 *267:8 *1291:S 0
17 *267:8 *1330:SETN 0
18 *267:23 *1325:SETN 0.000342528
19 rx_data_o[1] *1401:I 1.28529e-05
20 *1291:I1 *1401:I 0.000193942
21 *1400:I *1401:I 0.000479091
22 *245:28 *1292:I1 2.11326e-05
*RES
1 *1326:Q *267:8 9.228 
2 *267:8 *1292:I1 14.396 
3 *267:8 *267:23 0.836 
4 *267:23 *1291:I0 9 
5 *267:23 *1401:I 13.408 
*END

*D_NET *268 0.0010614
*CONN
*I *1161:A2 I *D gf180mcu_fd_sc_mcu7t5v0__xor2_1
*I *1389:Z O *D gf180mcu_fd_sc_mcu7t5v0__dlyb_1
*CAP
1 *1161:A2 0.000354699
2 *1389:Z 0.000354699
3 *1164:A2 *1161:A2 5.34232e-05
4 *1177:A2 *1161:A2 4.24995e-05
5 *1192:A1 *1161:A2 2.22657e-05
6 *1200:A2 *1161:A2 0
7 *247:8 *1161:A2 0.000148889
8 *248:14 *1161:A2 8.49277e-05
*RES
1 *1389:Z *1161:A2 11.888 
*END

*D_NET *269 0.00481641
*CONN
*I *1402:I I *D gf180mcu_fd_sc_mcu7t5v0__dlyb_1
*I *1292:I0 I *D gf180mcu_fd_sc_mcu7t5v0__mux2_2
*I *1293:I1 I *D gf180mcu_fd_sc_mcu7t5v0__mux2_2
*I *1327:Q O *D gf180mcu_fd_sc_mcu7t5v0__dffsnq_1
*CAP
1 *1402:I 0.000698333
2 *1292:I0 3.23313e-05
3 *1293:I1 0.000375663
4 *1327:Q 0.000206982
5 *269:19 0.000853916
6 *269:8 0.000705897
7 *1292:I0 *278:91 1.3758e-05
8 *1293:I1 *1293:I0 0
9 *1293:I1 *1293:S 0.00121586
10 *1402:I *1330:SETN 0
11 *269:19 *1293:S 0.000135941
12 *1292:I1 *1402:I 3.37776e-05
13 *1292:I1 *269:8 0.000369754
14 *1292:I1 *269:19 1.45899e-05
15 *1326:D *269:8 8.7332e-05
16 *245:28 *269:8 1.39108e-05
17 *245:39 *269:8 5.83634e-05
*RES
1 *1327:Q *269:8 10.9 
2 *269:8 *1293:I1 13.028 
3 *269:8 *269:19 0.836 
4 *269:19 *1292:I0 9.228 
5 *269:19 *1402:I 13.104 
*END

*D_NET *270 0.00347584
*CONN
*I *1403:I I *D gf180mcu_fd_sc_mcu7t5v0__dlyb_1
*I *1294:I1 I *D gf180mcu_fd_sc_mcu7t5v0__mux2_2
*I *1293:I0 I *D gf180mcu_fd_sc_mcu7t5v0__mux2_2
*I *1328:Q O *D gf180mcu_fd_sc_mcu7t5v0__dffsnq_1
*CAP
1 *1403:I 0.00019598
2 *1294:I1 0.00022312
3 *1293:I0 0.000275635
4 *1328:Q 0
5 *270:21 0.000602809
6 *270:4 0.000459343
7 *1293:I0 *1293:S 1.5015e-05
8 *1293:I0 *1294:S 0.000148879
9 *1293:I0 *282:96 8.59214e-05
10 *1294:I1 *1294:S 0.000215472
11 *1294:I1 *1404:I 2.90045e-05
12 *1294:I1 *271:19 7.45328e-07
13 *1403:I *1294:S 0.00020862
14 *1403:I *1404:I 0.000348764
15 *270:21 *1294:S 0.000162255
16 *270:21 *1404:I 2.9378e-06
17 *270:21 *271:19 6.63909e-05
18 *270:21 *282:81 0.000255714
19 *1293:I1 *1293:I0 0
20 *1327:D *270:21 1.97747e-05
21 *245:41 *1294:I1 3.56597e-05
22 *245:41 *1403:I 0.000102986
23 *245:47 *1294:I1 2.08148e-05
*RES
1 *1328:Q *270:4 4.5 
2 *270:4 *1293:I0 15.78 
3 *270:4 *270:21 6.248 
4 *270:21 *1294:I1 10.824 
5 *270:21 *1403:I 11.812 
*END

*D_NET *271 0.00469783
*CONN
*I *1404:I I *D gf180mcu_fd_sc_mcu7t5v0__dlyb_1
*I *1294:I0 I *D gf180mcu_fd_sc_mcu7t5v0__mux2_2
*I *1297:I1 I *D gf180mcu_fd_sc_mcu7t5v0__mux2_2
*I *1329:Q O *D gf180mcu_fd_sc_mcu7t5v0__dffsnq_1
*CAP
1 *1404:I 0.000405199
2 *1294:I0 0
3 *1297:I1 0.000160377
4 *1329:Q 0.000233942
5 *271:19 0.00100569
6 *271:10 0.000994814
7 *1297:I1 *282:72 4.71447e-05
8 *1297:I1 *282:81 4.27813e-05
9 *1404:I *1294:S 0.000406043
10 *271:10 *1297:S 0.000138445
11 *271:19 *1328:SETN 7.57767e-05
12 *271:19 *282:81 0.000244729
13 rx_data_o[3] *1404:I 7.02034e-05
14 rx_data_o[4] *1404:I 9.85832e-05
15 *1294:I1 *1404:I 2.90045e-05
16 *1294:I1 *271:19 7.45328e-07
17 *1327:D *271:19 0.000326257
18 *1328:D *271:19 0
19 *1403:I *1404:I 0.000348764
20 *270:21 *1404:I 2.9378e-06
21 *270:21 *271:19 6.63909e-05
*RES
1 *1329:Q *271:10 15.4 
2 *271:10 *1297:I1 5.64 
3 *271:10 *271:19 4.94 
4 *271:19 *1294:I0 4.5 
5 *271:19 *1404:I 17.832 
*END

*D_NET *272 0.00523329
*CONN
*I *1405:I I *D gf180mcu_fd_sc_mcu7t5v0__dlyb_1
*I *1301:A1 I *D gf180mcu_fd_sc_mcu7t5v0__nand2_1
*I *1295:B I *D gf180mcu_fd_sc_mcu7t5v0__oai21_1
*I *1330:Q O *D gf180mcu_fd_sc_mcu7t5v0__dffsnq_1
*CAP
1 *1405:I 0.000186962
2 *1301:A1 7.9573e-05
3 *1295:B 0.000212404
4 *1330:Q 0
5 *272:10 0.00085393
6 *272:6 0.000748915
7 *1301:A1 *1301:A2 8.55327e-05
8 *1405:I *1291:S 0.000209085
9 *1405:I *1406:I 1.52562e-05
10 *1405:I *280:34 8.29507e-05
11 *1405:I *284:67 0
12 *272:10 *280:8 7.65291e-05
13 *272:10 *280:34 0.000412356
14 *272:10 *284:67 0
15 *1296:A2 *1295:B 0.000433917
16 *1297:I0 *1295:B 0.000149409
17 *245:6 *1295:B 0.000848854
18 *245:19 *1295:B 0.000407791
19 *245:28 *1295:B 6.00599e-05
20 *245:28 *1301:A1 0.000369763
*RES
1 *1330:Q *272:6 9 
2 *272:6 *272:10 9.592 
3 *272:10 *1295:B 8.3 
4 *272:10 *1301:A1 5.488 
5 *272:6 *1405:I 10.672 
*END

*D_NET *273 0.00537211
*CONN
*I *1406:I I *D gf180mcu_fd_sc_mcu7t5v0__dlyb_1
*I *1305:A1 I *D gf180mcu_fd_sc_mcu7t5v0__nand2_1
*I *1300:A2 I *D gf180mcu_fd_sc_mcu7t5v0__aoi21_1
*I *1331:Q O *D gf180mcu_fd_sc_mcu7t5v0__dffsnq_1
*CAP
1 *1406:I 0.000573076
2 *1305:A1 0
3 *1300:A2 0.000523358
4 *1331:Q 0.000515813
5 *273:23 0.000573076
6 *273:10 0.00103917
7 *1300:A2 *1305:A2 0.000394625
8 *1300:A2 *1331:SETN 0
9 *1300:A2 *278:91 0
10 *1300:A2 *284:67 0
11 *1300:A2 *295:36 7.83988e-05
12 *1406:I *1291:S 0
13 *1406:I *1331:SETN 2.22657e-05
14 *1406:I *284:61 5.67437e-05
15 *273:10 *1331:SETN 0
16 rx_data_o[5] *1406:I 2.84711e-05
17 rx_data_o[5] *273:10 0
18 *1300:A1 *1300:A2 0.000194266
19 *1303:A1 *273:10 1.45899e-05
20 *1303:A2 *1406:I 1.91917e-06
21 *1304:C *1406:I 4.53734e-05
22 *1306:B *1406:I 4.00178e-05
23 *1331:D *1300:A2 0.000239414
24 *1331:CLK *1300:A2 0
25 *1368:I *1300:A2 5.87561e-06
26 *1405:I *1406:I 1.52562e-05
27 *246:14 *1300:A2 5.13352e-06
28 *246:16 *1300:A2 2.08148e-05
29 *257:10 *1300:A2 9.26357e-05
30 *257:10 *273:10 1.90639e-05
31 *257:14 *1300:A2 0.00023088
32 *257:29 *1300:A2 0.000489911
33 *257:31 *1300:A2 0.000151957
*RES
1 *1331:Q *273:10 12.04 
2 *273:10 *1300:A2 15.384 
3 *273:10 *273:23 4.5 
4 *273:23 *1305:A1 4.5 
5 *273:23 *1406:I 8.3 
*END

*D_NET *274 0.00217383
*CONN
*I *1407:I I *D gf180mcu_fd_sc_mcu7t5v0__dlyb_1
*I *1158:I I *D gf180mcu_fd_sc_mcu7t5v0__clkinv_1
*I *1308:A1 I *D gf180mcu_fd_sc_mcu7t5v0__nand2_1
*I *1332:Q O *D gf180mcu_fd_sc_mcu7t5v0__dffsnq_1
*CAP
1 *1407:I 4.48253e-05
2 *1158:I 0
3 *1308:A1 4.09203e-05
4 *1332:Q 0.000262608
5 *274:21 0.000132273
6 *274:10 0.000390977
7 *1308:A1 *1291:S 0.00020108
8 *1308:A1 *284:48 4.63008e-05
9 *1407:I *1291:S 0.000194624
10 *1407:I *284:61 0.000209639
11 *274:21 *1291:S 0.000479091
12 *274:21 *284:48 4.27914e-05
13 *274:21 *284:61 9.58397e-05
14 rx_data_o[7] *274:10 0
15 *1309:B *274:10 3.28611e-05
*RES
1 *1332:Q *274:10 15.4 
2 *274:10 *1308:A1 5.032 
3 *274:10 *274:21 1.52 
4 *274:21 *1158:I 4.5 
5 *274:21 *1407:I 5.64 
*END

*D_NET *275 0.00215568
*CONN
*I *1214:A2 I *D gf180mcu_fd_sc_mcu7t5v0__and2_1
*I *1408:I I *D gf180mcu_fd_sc_mcu7t5v0__dlyb_1
*I *1213:ZN O *D gf180mcu_fd_sc_mcu7t5v0__nor2_1
*CAP
1 *1214:A2 0.000217229
2 *1408:I 0.000262781
3 *1213:ZN 0
4 *275:4 0.00048001
5 *1214:A2 *1270:A1 7.24161e-06
6 *1214:A2 *284:31 0.00033325
7 *1214:A2 *291:21 6.11648e-05
8 *1408:I *1270:A1 3.08902e-05
9 *1408:I *284:31 2.95073e-05
10 *1408:I *291:14 0
11 *1408:I *291:21 0.000154451
12 *1214:A1 *1214:A2 0.000483795
13 *1216:A1 *1408:I 2.70169e-05
14 *1216:A2 *1408:I 6.83457e-05
*RES
1 *1213:ZN *275:4 4.5 
2 *275:4 *1408:I 15.476 
3 *275:4 *1214:A2 7.16 
*END

*D_NET *276 0.0212889
*CONN
*I *1235:A1 I *D gf180mcu_fd_sc_mcu7t5v0__nor2_1
*I *1241:A1 I *D gf180mcu_fd_sc_mcu7t5v0__nor2_1
*I *1248:A1 I *D gf180mcu_fd_sc_mcu7t5v0__nor3_1
*I *1244:A1 I *D gf180mcu_fd_sc_mcu7t5v0__nor3_1
*I *1232:A1 I *D gf180mcu_fd_sc_mcu7t5v0__nor3_1
*I *1226:A1 I *D gf180mcu_fd_sc_mcu7t5v0__nor3_1
*I *1228:A1 I *D gf180mcu_fd_sc_mcu7t5v0__nor2_1
*I *1223:A1 I *D gf180mcu_fd_sc_mcu7t5v0__nor3_1
*I *1220:A1 I *D gf180mcu_fd_sc_mcu7t5v0__nor2_1
*I *1218:A2 I *D gf180mcu_fd_sc_mcu7t5v0__nor2_1
*I *1365:Z O *D gf180mcu_fd_sc_mcu7t5v0__dlyb_1
*CAP
1 *1235:A1 0
2 *1241:A1 0.000228505
3 *1248:A1 5.69677e-05
4 *1244:A1 0
5 *1232:A1 3.0956e-05
6 *1226:A1 3.28034e-05
7 *1228:A1 0.000296179
8 *1223:A1 0
9 *1220:A1 0.000592598
10 *1218:A2 0
11 *1365:Z 0.000438747
12 *276:93 0.000879977
13 *276:84 0.00321285
14 *276:53 0.000328983
15 *276:32 0.00107981
16 *276:28 0.000728259
17 *276:26 0.000911024
18 *276:24 0.00100041
19 *276:14 0.00317953
20 *276:10 0.000700448
21 *1241:A1 *281:113 0
22 *1241:A1 *284:67 0.000114324
23 *1248:A1 *1348:RN 0
24 *1248:A1 *284:67 2.43212e-05
25 *276:10 *281:16 5.76373e-06
26 *276:10 *281:94 5.76063e-06
27 *276:24 *281:16 1.45899e-05
28 *276:26 *281:16 8.92063e-06
29 *276:26 *281:18 2.89248e-05
30 *1180:A1 *276:84 0.000369754
31 *1180:A2 *276:84 0.000324839
32 *1180:A3 *276:84 0.000238397
33 *1218:A1 *276:32 0.000383063
34 *1223:A3 *276:32 6.51504e-05
35 *1225:A2 *276:28 0.000381142
36 *1225:A2 *276:32 0.000158809
37 *1226:A2 *1228:A1 0.000915035
38 *1228:A2 *1228:A1 1.5015e-05
39 *1232:A2 *276:24 9.58397e-05
40 *1232:A2 *276:84 0.000224203
41 *1232:A3 *276:24 0
42 *1237:A3 *276:84 0
43 *1242:A1 *276:84 0
44 *1245:A2 *276:84 3.99555e-05
45 *1245:A2 *276:93 0.000210489
46 *1248:A2 *276:93 5.29084e-05
47 *1337:D *1220:A1 1.02578e-05
48 *1338:D *1220:A1 0.00032464
49 *1338:CLK *1220:A1 0
50 *1341:D *1228:A1 0.000315892
51 *1341:CLK *1228:A1 2.23477e-05
52 *1342:CLK *276:10 0
53 *1343:CLK *276:24 0
54 *1343:CLK *276:84 0
55 *1346:D *276:84 0.000102794
56 *1346:CLK *276:84 0.000216378
57 *1347:D *1241:A1 0.000618644
58 *1347:D *1248:A1 0.000104569
59 *1357:I *276:84 0
60 *26:10 *276:84 0
61 *26:10 *276:93 0
62 *157:8 *276:32 0.000428483
63 *159:14 *1228:A1 0
64 *159:38 *276:84 0
65 *163:6 *276:84 0.000107858
66 *172:14 *276:84 7.24052e-05
67 *225:10 *276:93 0
68 *232:10 *276:26 0.000110995
69 *232:10 *276:28 0.000300149
70 *232:10 *276:32 9.50933e-05
71 *232:25 *276:32 0.000287955
72 *233:12 *276:26 0.00056587
73 *236:21 *276:84 0
74 *236:40 *276:84 0.000193155
75 *237:22 *276:84 3.61829e-05
76 *241:39 *276:84 0
*RES
1 *1365:Z *276:10 11.888 
2 *276:10 *276:14 6.248 
3 *276:14 *276:24 6.476 
4 *276:24 *276:26 5.7 
5 *276:26 *276:28 2.508 
6 *276:28 *276:32 9.136 
7 *276:32 *1218:A2 4.5 
8 *276:32 *1220:A1 8.376 
9 *276:28 *1223:A1 9 
10 *276:26 *276:53 4.5 
11 *276:53 *1228:A1 7.768 
12 *276:53 *1226:A1 4.728 
13 *276:24 *1232:A1 9.228 
14 *276:14 *276:84 19 
15 *276:84 *1244:A1 4.5 
16 *276:84 *276:93 8.528 
17 *276:93 *1248:A1 9.684 
18 *276:93 *1241:A1 12.268 
19 *276:10 *1235:A1 9 
*END

*D_NET *277 0.00773461
*CONN
*I *1252:A1 I *D gf180mcu_fd_sc_mcu7t5v0__nor3_1
*I *1254:A1 I *D gf180mcu_fd_sc_mcu7t5v0__nor2_1
*I *1258:A1 I *D gf180mcu_fd_sc_mcu7t5v0__nor3_1
*I *1263:C I *D gf180mcu_fd_sc_mcu7t5v0__aoi211_1
*I *1261:A1 I *D gf180mcu_fd_sc_mcu7t5v0__nor3_1
*I *1366:Z O *D gf180mcu_fd_sc_mcu7t5v0__dlyb_1
*CAP
1 *1252:A1 0
2 *1254:A1 0.000235281
3 *1258:A1 0.000184959
4 *1263:C 0.00030803
5 *1261:A1 9.94871e-05
6 *1366:Z 0.000183227
7 *277:40 0.00042024
8 *277:20 0.00102825
9 *277:18 0.00154678
10 *277:8 0.00110928
11 *1252:A2 *277:8 4.97712e-06
12 *1252:A2 *277:18 0.000151949
13 *1252:A3 *277:18 1.52768e-05
14 *1253:A1 *1254:A1 1.91917e-06
15 *1253:A1 *1258:A1 0
16 *1253:A2 *1254:A1 4.2318e-06
17 *1254:A2 *1254:A1 0.000273898
18 *1259:A1 *1263:C 0.000106097
19 *1259:A2 *1263:C 1.15275e-05
20 *1260:A1 *1263:C 0.000154451
21 *1260:A2 *1263:C 0.000193933
22 *1260:A2 *277:20 0
23 *1261:A2 *1261:A1 0.000206333
24 *1261:A2 *277:20 0.000151957
25 *1261:A3 *1263:C 0.000246993
26 *1262:A1 *1263:C 3.6994e-05
27 *1262:A2 *1263:C 0.000224654
28 *1263:A2 *1263:C 0
29 *1263:B *1263:C 7.53241e-05
30 *1348:D *277:8 9.83109e-05
31 *1348:CLK *277:18 0
32 *1348:CLK *277:20 0
33 *1349:D *1254:A1 0.000317503
34 *182:12 *277:18 0
35 *182:14 *277:18 0
36 *182:14 *277:20 0
37 *227:6 *277:8 0
38 *229:10 *277:20 0
39 *229:12 *1263:C 9.4764e-05
40 *229:27 *1263:C 0.000200861
41 *230:12 *1263:C 7.24161e-06
42 *243:112 *1254:A1 0
43 *243:112 *1258:A1 3.98838e-05
*RES
1 *1366:Z *277:8 5.868 
2 *277:8 *277:18 10.58 
3 *277:18 *277:20 3.572 
4 *277:20 *1261:A1 9.836 
5 *277:20 *1263:C 13.332 
6 *277:18 *277:40 4.5 
7 *277:40 *1258:A1 5.64 
8 *277:40 *1254:A1 6.78 
9 *277:8 *1252:A1 4.5 
*END

*D_NET *278 0.0242792
*CONN
*I *1294:S I *D gf180mcu_fd_sc_mcu7t5v0__mux2_2
*I *1320:A2 I *D gf180mcu_fd_sc_mcu7t5v0__oai21_1
*I *1319:A2 I *D gf180mcu_fd_sc_mcu7t5v0__nand3_1
*I *1292:S I *D gf180mcu_fd_sc_mcu7t5v0__mux2_2
*I *1293:S I *D gf180mcu_fd_sc_mcu7t5v0__mux2_2
*I *1313:B I *D gf180mcu_fd_sc_mcu7t5v0__aoi21_1
*I *1291:S I *D gf180mcu_fd_sc_mcu7t5v0__mux2_2
*I *1308:A2 I *D gf180mcu_fd_sc_mcu7t5v0__nand2_1
*I *1309:A1 I *D gf180mcu_fd_sc_mcu7t5v0__oai21_1
*I *1311:I1 I *D gf180mcu_fd_sc_mcu7t5v0__mux2_2
*I *1367:Z O *D gf180mcu_fd_sc_mcu7t5v0__dlyb_1
*CAP
1 *1294:S 0.000413839
2 *1320:A2 0.000233922
3 *1319:A2 0
4 *1292:S 0
5 *1293:S 0.000691878
6 *1313:B 0.000159158
7 *1291:S 0.00116523
8 *1308:A2 0
9 *1309:A1 0
10 *1311:I1 0.000994231
11 *1367:Z 7.5521e-05
12 *278:91 0.00118916
13 *278:70 0.00177226
14 *278:48 0.00131497
15 *278:35 0.000465594
16 *278:31 0.00117831
17 *278:27 0.000211095
18 *278:12 0.0011546
19 *278:8 0.000419187
20 *1291:S *1307:A1 0.000338718
21 *1291:S *280:34 0.00118772
22 *1291:S *284:48 8.0352e-06
23 *1291:S *284:61 0.000541294
24 *1293:S *282:81 0
25 *1293:S *282:102 4.62046e-05
26 *1294:S *282:81 0.000103957
27 *1311:I1 *1267:A2 0.000458149
28 *1311:I1 *1370:I 0
29 *1311:I1 *282:12 0
30 *1320:A2 *1319:A1 4.68103e-05
31 *1320:A2 *284:31 0
32 *278:8 *1370:I 0.000160944
33 *278:8 *290:8 4.0819e-05
34 *278:12 *1267:A2 8.64281e-06
35 *278:12 *1370:I 5.96894e-05
36 *278:12 *290:8 2.10669e-05
37 *1165:A1 *1311:I1 9.77285e-05
38 *1273:A1 *278:91 0.000214408
39 *1292:I0 *278:91 1.3758e-05
40 *1292:I1 *1293:S 9.50296e-06
41 *1292:I1 *278:91 0.00023033
42 *1293:I0 *1293:S 1.5015e-05
43 *1293:I0 *1294:S 0.000148879
44 *1293:I1 *1293:S 0.00121586
45 *1294:I1 *1294:S 0.000215472
46 *1296:A1 *1313:B 0.000107038
47 *1296:A2 *1313:B 0
48 *1300:A2 *278:91 0
49 *1302:A2 *278:91 0
50 *1302:B *278:91 0.000149579
51 *1304:B *1291:S 8.55242e-05
52 *1306:A2 *1291:S 4.17249e-05
53 *1307:A3 *278:70 0.000379274
54 *1308:A1 *1291:S 0.00020108
55 *1309:A2 *1291:S 0
56 *1309:A2 *278:70 0
57 *1309:B *278:48 0.000222333
58 *1310:A2 *1311:I1 0.000269857
59 *1319:A3 *1311:I1 0.000141897
60 *1319:A3 *278:27 0.000129078
61 *1319:A3 *278:31 9.26705e-05
62 *1320:B *1311:I1 0.000310356
63 *1320:B *1320:A2 1.53758e-05
64 *1320:B *278:27 0.000360235
65 *1320:B *278:31 9.00898e-05
66 *1330:D *278:91 0.000921547
67 *1332:D *278:31 1.91917e-06
68 *1332:D *278:70 0.000192001
69 *1332:CLK *278:31 0.000147129
70 *1332:CLK *278:70 0.00018511
71 *1336:D *1320:A2 0.000308746
72 *1367:I *1311:I1 0
73 *1367:I *278:12 8.54902e-05
74 *1368:I *278:70 0.000123105
75 *1401:I *1291:S 9.88736e-06
76 *1403:I *1294:S 0.00020862
77 *1404:I *1294:S 0.000406043
78 *1405:I *1291:S 0.000209085
79 *1406:I *1291:S 0
80 *1407:I *1291:S 0.000194624
81 *84:26 *1311:I1 0.000142736
82 *195:8 *1311:I1 0.000151957
83 *205:10 *1311:I1 0
84 *245:6 *278:91 6.25174e-05
85 *245:19 *278:91 6.26621e-05
86 *245:28 *278:91 0.000193915
87 *246:14 *278:70 0
88 *246:16 *1313:B 0
89 *246:16 *278:70 0
90 *253:12 *1311:I1 0.000242872
91 *257:44 *278:91 0.000433917
92 *267:8 *1291:S 0
93 *269:19 *1293:S 0.000135941
94 *270:21 *1294:S 0.000162255
95 *274:21 *1291:S 0.000479091
*RES
1 *1367:Z *278:8 10.14 
2 *278:8 *278:12 5.488 
3 *278:12 *1311:I1 22.012 
4 *278:12 *278:27 0.988 
5 *278:27 *278:31 1.672 
6 *278:31 *278:35 5.944 
7 *278:35 *1309:A1 9 
8 *278:35 *278:48 5.868 
9 *278:48 *1308:A2 4.5 
10 *278:48 *1291:S 15.976 
11 *278:31 *278:70 10.58 
12 *278:70 *1313:B 9.988 
13 *278:70 *278:91 13.24 
14 *278:91 *1293:S 16.996 
15 *278:91 *1292:S 4.5 
16 *278:27 *1319:A2 4.5 
17 *278:8 *1320:A2 10.748 
18 *1293:S *1294:S 22.104 
*END

*D_NET *279 0.00559634
*CONN
*I *1174:A1 I *D gf180mcu_fd_sc_mcu7t5v0__xor2_1
*I *1151:I I *D gf180mcu_fd_sc_mcu7t5v0__clkinv_1
*I *1198:B1 I *D gf180mcu_fd_sc_mcu7t5v0__aoi22_1
*I *1390:Z O *D gf180mcu_fd_sc_mcu7t5v0__dlyb_1
*CAP
1 *1174:A1 0
2 *1151:I 0.000145419
3 *1198:B1 0.000132726
4 *1390:Z 0.000258213
5 *279:18 0.00102373
6 *279:12 0.0010038
7 *1151:I *1197:A1 8.64281e-06
8 *279:12 *1197:A1 0.000145096
9 *279:12 *288:10 0.000543959
10 *279:18 *1175:A1 0.000171918
11 *279:18 *1197:A1 0.000136852
12 *279:18 *286:10 0.00113079
13 *1182:A4 *279:18 1.80215e-05
14 *1189:A2 *279:18 5.87561e-06
15 *1198:A1 *279:18 0
16 *1198:B2 *1151:I 0.000460436
17 *1198:B2 *1198:B1 0.000201948
18 *1393:I *279:12 4.72461e-05
19 *97:8 *1198:B1 0
20 *229:27 *279:12 0.000161681
21 *255:14 *279:12 0
*RES
1 *1390:Z *279:12 15.932 
2 *279:12 *279:18 10.428 
3 *279:18 *1198:B1 10.14 
4 *279:18 *1151:I 10.444 
5 *279:12 *1174:A1 4.5 
*END

*D_NET *280 0.00658736
*CONN
*I *1302:A1 I *D gf180mcu_fd_sc_mcu7t5v0__oai21_1
*I *1306:A1 I *D gf180mcu_fd_sc_mcu7t5v0__oai21_1
*I *1305:A2 I *D gf180mcu_fd_sc_mcu7t5v0__nand2_1
*I *1301:A2 I *D gf180mcu_fd_sc_mcu7t5v0__nand2_1
*I *1297:S I *D gf180mcu_fd_sc_mcu7t5v0__mux2_2
*I *1368:Z O *D gf180mcu_fd_sc_mcu7t5v0__dlyb_1
*CAP
1 *1302:A1 8.46101e-05
2 *1306:A1 0
3 *1305:A2 9.85792e-05
4 *1301:A2 2.39161e-05
5 *1297:S 0.000469
6 *1368:Z 0
7 *280:34 0.000939934
8 *280:8 0.000684337
9 *280:6 0.00103278
10 *280:4 8.46101e-05
11 *1297:S *282:72 0.000386421
12 *1305:A2 *1331:SETN 0
13 *1305:A2 *284:67 0
14 *1291:S *280:34 0.00118772
15 *1297:I0 *1297:S 0
16 *1300:A2 *1305:A2 0.000394625
17 *1301:A1 *1301:A2 8.55327e-05
18 *1302:A2 *1302:A1 2.57365e-05
19 *1330:D *1302:A1 0.000379283
20 *1331:D *280:34 0
21 *1405:I *280:34 8.29507e-05
22 *271:10 *1297:S 0.000138445
23 *272:10 *280:8 7.65291e-05
24 *272:10 *280:34 0.000412356
*RES
1 *1368:Z *280:4 4.5 
2 *280:4 *280:6 4.5 
3 *280:6 *280:8 1.14 
4 *280:8 *1297:S 12.952 
5 *280:8 *1301:A2 9.228 
6 *280:6 *280:34 12.556 
7 *280:34 *1305:A2 14.488 
8 *280:34 *1306:A1 4.5 
9 *280:4 *1302:A1 5.488 
*END

*D_NET *281 0.0262226
*CONN
*I *1343:RN I *D gf180mcu_fd_sc_mcu7t5v0__dffrnq_1
*I *1347:RN I *D gf180mcu_fd_sc_mcu7t5v0__dffrnq_1
*I *1348:RN I *D gf180mcu_fd_sc_mcu7t5v0__dffrnq_1
*I *1346:RN I *D gf180mcu_fd_sc_mcu7t5v0__dffrnq_1
*I *1342:RN I *D gf180mcu_fd_sc_mcu7t5v0__dffrnq_1
*I *1340:RN I *D gf180mcu_fd_sc_mcu7t5v0__dffrnq_1
*I *1337:RN I *D gf180mcu_fd_sc_mcu7t5v0__dffrnq_1
*I *1338:RN I *D gf180mcu_fd_sc_mcu7t5v0__dffrnq_1
*I *1339:RN I *D gf180mcu_fd_sc_mcu7t5v0__dffrnq_1
*I *1341:RN I *D gf180mcu_fd_sc_mcu7t5v0__dffrnq_1
*I *1369:Z O *D gf180mcu_fd_sc_mcu7t5v0__dlyb_1
*CAP
1 *1343:RN 0
2 *1347:RN 0
3 *1348:RN 0.00054369
4 *1346:RN 0
5 *1342:RN 0
6 *1340:RN 0
7 *1337:RN 3.78926e-05
8 *1338:RN 0.000565097
9 *1339:RN 5.93355e-05
10 *1341:RN 0.000490887
11 *1369:Z 0.000227135
12 *281:113 0.00205656
13 *281:102 0.00414819
14 *281:94 0.00282063
15 *281:52 0.00118474
16 *281:39 0.000992275
17 *281:33 0.000577079
18 *281:18 0.000970607
19 *281:16 0.00125043
20 *281:10 0.00140904
21 *1148:I *281:102 0.000124419
22 *1185:A1 *281:102 4.46358e-05
23 *1185:A2 *281:102 0
24 *1195:A1 *281:102 1.45682e-05
25 *1221:A2 *1338:RN 0.00010577
26 *1238:A1 *281:102 0.000234461
27 *1241:A1 *281:113 0
28 *1248:A1 *1348:RN 0
29 *1248:A3 *1348:RN 0
30 *1249:A2 *1348:RN 0
31 *1334:D *281:102 0.000271661
32 *1334:CLK *281:102 0.000111861
33 *1340:D *281:52 0.000129791
34 *1341:CLK *281:52 0.000486883
35 *1342:D *281:16 0.000573871
36 *1344:D *281:102 1.72372e-05
37 *1345:CLK *281:113 0.0012495
38 *1347:D *1348:RN 0
39 *1347:D *281:113 0
40 *151:6 *281:102 9.65242e-05
41 *224:12 *1337:RN 4.58601e-06
42 *224:12 *1338:RN 0.000435977
43 *224:12 *281:52 0.000307374
44 *224:16 *1338:RN 5.86019e-06
45 *224:37 *1338:RN 0.000594328
46 *224:50 *1338:RN 0.000244875
47 *226:12 *1348:RN 0.000204151
48 *231:8 *1338:RN 0.000886845
49 *232:10 *1339:RN 3.14261e-05
50 *232:10 *281:52 0.00017672
51 *233:12 *1341:RN 6.31406e-05
52 *233:12 *281:18 0.000132335
53 *233:12 *281:52 0.00010765
54 *236:12 *281:102 0
55 *242:53 *281:39 0.0014999
56 *242:59 *1339:RN 0.000258057
57 *242:59 *281:52 5.40976e-05
58 *243:26 *281:102 1.15312e-05
59 *245:51 *281:113 0
60 *245:55 *281:113 3.35674e-05
61 *249:20 *1341:RN 0.00015196
62 *249:20 *281:33 0.000159478
63 *254:12 *281:102 0
64 *254:12 *281:113 0
65 *276:10 *281:16 5.76373e-06
66 *276:10 *281:94 5.76063e-06
67 *276:24 *281:16 1.45899e-05
68 *276:26 *281:16 8.92063e-06
69 *276:26 *281:18 2.89248e-05
*RES
1 *1369:Z *281:10 15.096 
2 *281:10 *281:16 12.252 
3 *281:16 *281:18 1.9 
4 *281:18 *1341:RN 12.192 
5 *281:18 *281:33 6.096 
6 *281:33 *281:39 12.876 
7 *281:39 *1339:RN 5.184 
8 *281:39 *281:52 10.124 
9 *281:52 *1338:RN 15.232 
10 *281:52 *1337:RN 9.228 
11 *281:33 *1340:RN 4.5 
12 *281:16 *1342:RN 9 
13 *281:10 *281:94 1.14 
14 *281:94 *281:102 17.328 
15 *281:102 *1346:RN 4.5 
16 *281:102 *281:113 15.444 
17 *281:113 *1348:RN 12.648 
18 *281:113 *1347:RN 9 
19 *281:94 *1343:RN 4.5 
*END

*D_NET *282 0.0207217
*CONN
*I *1327:SETN I *D gf180mcu_fd_sc_mcu7t5v0__dffsnq_1
*I *1325:SETN I *D gf180mcu_fd_sc_mcu7t5v0__dffsnq_1
*I *1326:SETN I *D gf180mcu_fd_sc_mcu7t5v0__dffsnq_1
*I *1330:SETN I *D gf180mcu_fd_sc_mcu7t5v0__dffsnq_1
*I *1328:SETN I *D gf180mcu_fd_sc_mcu7t5v0__dffsnq_1
*I *1329:SETN I *D gf180mcu_fd_sc_mcu7t5v0__dffsnq_1
*I *1335:RN I *D gf180mcu_fd_sc_mcu7t5v0__dffrnq_1
*I *1334:RN I *D gf180mcu_fd_sc_mcu7t5v0__dffrnq_1
*I *1345:RN I *D gf180mcu_fd_sc_mcu7t5v0__dffrnq_1
*I *1333:RN I *D gf180mcu_fd_sc_mcu7t5v0__dffrnq_1
*I *1370:Z O *D gf180mcu_fd_sc_mcu7t5v0__dlyb_1
*CAP
1 *1327:SETN 4.72927e-05
2 *1325:SETN 0.00043895
3 *1326:SETN 0
4 *1330:SETN 0.000810345
5 *1328:SETN 0.000227788
6 *1329:SETN 0
7 *1335:RN 0
8 *1334:RN 0
9 *1345:RN 0.000722402
10 *1333:RN 0
11 *1370:Z 0.000249834
12 *282:104 0.000810345
13 *282:102 0.00102981
14 *282:96 0.000846789
15 *282:81 0.000804585
16 *282:72 0.00123833
17 *282:59 0.00154001
18 *282:31 0.00106456
19 *282:23 0.00123002
20 *282:12 0.000467863
21 *282:12 *292:21 3.45793e-05
22 *282:23 *292:21 0.000348605
23 *282:31 *292:25 0.000109796
24 *1275:A1 *282:59 0
25 *1275:A2 *282:23 0
26 *1291:I1 *1325:SETN 0
27 *1292:I1 *1325:SETN 0.00049905
28 *1292:I1 *282:102 0.00108881
29 *1293:I0 *282:96 8.59214e-05
30 *1293:S *282:81 0
31 *1293:S *282:102 4.62046e-05
32 *1294:S *282:81 0.000103957
33 *1297:I0 *282:72 0
34 *1297:I1 *282:72 4.71447e-05
35 *1297:I1 *282:81 4.27813e-05
36 *1297:S *282:72 0.000386421
37 *1311:I1 *282:12 0
38 *1316:A4 *282:23 0.000205447
39 *1316:A4 *282:59 9.17202e-06
40 *1317:A1 *282:31 0.000340241
41 *1317:A1 *282:59 0
42 *1317:B *282:59 0
43 *1325:D *1325:SETN 0.000485254
44 *1325:CLK *1325:SETN 0
45 *1325:CLK *282:102 0
46 *1327:D *282:81 0.000673025
47 *1328:D *1328:SETN 5.86759e-05
48 *1334:D *1345:RN 0
49 *1334:D *282:31 0
50 *1335:CLK *1345:RN 0.000283699
51 *1368:I *1330:SETN 0
52 *1400:I *1325:SETN 0
53 *1401:I *1325:SETN 0.00033338
54 *1402:I *1330:SETN 0
55 *64:12 *282:31 1.45899e-05
56 *65:12 *282:59 0.000296246
57 *100:8 *282:31 0.000190418
58 *100:8 *282:59 0
59 *193:10 *282:59 0
60 *217:20 *282:23 0.000673025
61 *219:8 *282:59 7.7322e-05
62 *245:28 *282:102 2.9378e-06
63 *245:39 *1327:SETN 8.81341e-06
64 *245:39 *282:102 6.63909e-05
65 *245:41 *1328:SETN 0.000355995
66 *245:41 *282:96 0.00127023
67 *245:41 *282:102 0
68 *245:47 *1328:SETN 8.84331e-05
69 *266:10 *1325:SETN 4.74709e-05
70 *267:8 *1330:SETN 0
71 *267:23 *1325:SETN 0.000342528
72 *270:21 *282:81 0.000255714
73 *271:19 *1328:SETN 7.57767e-05
74 *271:19 *282:81 0.000244729
*RES
1 *1370:Z *282:12 15.172 
2 *282:12 *1333:RN 4.5 
3 *282:12 *282:23 2.964 
4 *282:23 *282:31 7.768 
5 *282:31 *1345:RN 14.016 
6 *282:31 *1334:RN 9 
7 *282:23 *282:59 13.788 
8 *282:59 *1335:RN 4.5 
9 *282:59 *282:72 5.472 
10 *282:72 *1329:SETN 4.5 
11 *282:72 *282:81 8.68 
12 *282:81 *1328:SETN 11.128 
13 *282:81 *282:96 7.616 
14 *282:96 *282:102 9.516 
15 *282:102 *282:104 4.5 
16 *282:104 *1330:SETN 9.06 
17 *282:104 *1326:SETN 4.5 
18 *282:102 *1325:SETN 14.168 
19 *282:96 *1327:SETN 4.728 
*END

*D_NET *283 0.0205438
*CONN
*I *1336:RN I *D gf180mcu_fd_sc_mcu7t5v0__dffrnq_1
*I *1356:SETN I *D gf180mcu_fd_sc_mcu7t5v0__dffsnq_1
*I *1353:RN I *D gf180mcu_fd_sc_mcu7t5v0__dffrnq_1
*I *1355:SETN I *D gf180mcu_fd_sc_mcu7t5v0__dffsnq_1
*I *1344:RN I *D gf180mcu_fd_sc_mcu7t5v0__dffrnq_1
*I *1322:RN I *D gf180mcu_fd_sc_mcu7t5v0__dffrnq_1
*I *1321:RN I *D gf180mcu_fd_sc_mcu7t5v0__dffrnq_1
*I *1324:RN I *D gf180mcu_fd_sc_mcu7t5v0__dffrnq_1
*I *1323:RN I *D gf180mcu_fd_sc_mcu7t5v0__dffrnq_1
*I *1354:SETN I *D gf180mcu_fd_sc_mcu7t5v0__dffsnq_1
*I *1371:Z O *D gf180mcu_fd_sc_mcu7t5v0__dlyb_1
*CAP
1 *1336:RN 0.000301544
2 *1356:SETN 5.46724e-05
3 *1353:RN 0
4 *1355:SETN 3.28034e-05
5 *1344:RN 0.000426812
6 *1322:RN 0.000355555
7 *1321:RN 0
8 *1324:RN 0
9 *1323:RN 0.000171568
10 *1354:SETN 0.000895553
11 *1371:Z 3.59117e-05
12 *283:98 0.000530118
13 *283:64 0.00112669
14 *283:56 0.000908534
15 *283:54 0.00160856
16 *283:48 0.00244423
17 *283:41 0.00163842
18 *283:34 0.00073585
19 *283:10 0.00166187
20 *283:8 0.000921275
21 *1336:RN *284:31 0
22 *283:34 *1371:I 0.000214994
23 *283:41 *1371:I 0.000234381
24 *283:41 *284:6 4.22854e-06
25 *283:41 *284:10 0
26 *283:41 *284:31 0
27 *283:48 *284:31 0
28 *283:48 *291:8 4.57473e-05
29 *283:54 *294:10 1.04094e-05
30 *283:54 *295:12 0
31 *283:98 *284:31 0
32 err_parity_o *283:48 6.44359e-05
33 *1155:I *1354:SETN 0.000673596
34 *1168:A1 *283:56 0.000531137
35 *1168:A1 *283:64 2.05156e-05
36 *1168:A2 *283:54 0
37 *1264:A1 *1354:SETN 9.21809e-06
38 *1266:A1 *283:54 0.00056691
39 *1269:A1 *283:54 0
40 *1272:A1 *283:56 0
41 *1278:A1 *283:54 0.000302526
42 *1278:A2 *283:54 0.000324233
43 *1284:A2 *1322:RN 0
44 *1385:I *283:41 2.23598e-06
45 *1388:I *283:48 6.71845e-05
46 *1397:I *283:48 0.000251988
47 *42:14 *1323:RN 0
48 *42:61 *1322:RN 0
49 *42:61 *283:64 0
50 *43:8 *283:10 0.000192484
51 *43:8 *283:34 6.59663e-05
52 *43:14 *283:10 2.50491e-05
53 *85:8 *283:54 0.000165226
54 *99:8 *1354:SETN 3.31851e-05
55 *110:34 *283:56 0
56 *111:12 *283:54 2.90023e-05
57 *111:12 *283:56 0.000231978
58 *152:12 *283:54 0
59 *237:10 *1344:RN 0
60 *240:10 *283:54 8.56396e-05
61 *240:32 *283:54 9.9501e-05
62 *240:45 *283:54 0.000228375
63 *240:58 *283:54 0.000206772
64 *253:12 *1336:RN 0.000134636
65 *256:10 *283:10 0.000339075
66 *256:10 *283:34 0.000159374
67 *256:12 *283:10 0.000275105
68 *256:16 *1354:SETN 0.000703606
69 *256:16 *283:10 0.000395159
*RES
1 *1371:Z *283:8 9.228 
2 *283:8 *283:10 5.7 
3 *283:10 *1354:SETN 16.524 
4 *283:10 *1323:RN 9.836 
5 *283:8 *283:34 7.084 
6 *283:34 *1324:RN 4.5 
7 *283:34 *283:41 2.812 
8 *283:41 *1321:RN 4.5 
9 *283:41 *283:48 8.132 
10 *283:48 *283:54 19.412 
11 *283:54 *283:56 4.636 
12 *283:56 *283:64 2.128 
13 *283:64 *1322:RN 6.552 
14 *283:64 *1344:RN 16.464 
15 *283:56 *1355:SETN 4.728 
16 *283:54 *1353:RN 4.5 
17 *283:48 *283:98 1.064 
18 *283:98 *1356:SETN 4.88 
19 *283:98 *1336:RN 6.4 
*END

*D_NET *284 0.0368523
*CONN
*I *1371:I I *D gf180mcu_fd_sc_mcu7t5v0__dlyb_1
*I *1331:SETN I *D gf180mcu_fd_sc_mcu7t5v0__dffsnq_1
*I *1349:RN I *D gf180mcu_fd_sc_mcu7t5v0__dffrnq_1
*I *1350:RN I *D gf180mcu_fd_sc_mcu7t5v0__dffrnq_1
*I *1351:RN I *D gf180mcu_fd_sc_mcu7t5v0__dffrnq_1
*I *1352:RN I *D gf180mcu_fd_sc_mcu7t5v0__dffrnq_1
*I *1332:SETN I *D gf180mcu_fd_sc_mcu7t5v0__dffsnq_1
*I *1370:I I *D gf180mcu_fd_sc_mcu7t5v0__dlyb_1
*I *1369:I I *D gf180mcu_fd_sc_mcu7t5v0__dlyb_1
*I *1372:Z O *D gf180mcu_fd_sc_mcu7t5v0__dlyb_1
*CAP
1 *1371:I 0.000356
2 *1331:SETN 0.000241831
3 *1349:RN 0.000675388
4 *1350:RN 0
5 *1351:RN 0.000348187
6 *1352:RN 0.000412144
7 *1332:SETN 0
8 *1370:I 0.000736133
9 *1369:I 0.00137079
10 *1372:Z 1.60384e-05
11 *284:75 0.00111356
12 *284:71 0.000413341
13 *284:67 0.0034747
14 *284:61 0.0035181
15 *284:48 0.00112908
16 *284:31 0.00305791
17 *284:10 0.00338798
18 *284:6 0.000659464
19 *1370:I *290:8 0
20 *284:31 *1270:A1 0.000224298
21 *284:48 *290:8 0
22 *1167:A1 *1369:I 9.50338e-05
23 *1214:A2 *284:31 0.00033325
24 *1216:A1 *284:31 0.000346979
25 *1241:A1 *284:67 0.000114324
26 *1248:A1 *284:67 2.43212e-05
27 *1248:A3 *284:67 0
28 *1249:A2 *284:67 0
29 *1255:A2 *284:75 0
30 *1270:A2 *284:31 0
31 *1277:A1 *1370:I 1.52691e-05
32 *1281:A1 *1369:I 0.000214589
33 *1283:A2 *1369:I 0
34 *1284:A2 *1369:I 3.82115e-05
35 *1284:B *1369:I 0.000267478
36 *1285:I0 *1369:I 3.71997e-05
37 *1291:S *284:48 8.0352e-06
38 *1291:S *284:61 0.000541294
39 *1296:A3 *284:67 0
40 *1297:I0 *284:67 0.000178684
41 *1300:A2 *1331:SETN 0
42 *1300:A2 *284:67 0
43 *1303:A2 *284:61 0
44 *1304:C *284:61 0.000166341
45 *1305:A2 *1331:SETN 0
46 *1305:A2 *284:67 0
47 *1306:B *284:61 0.000147313
48 *1308:A1 *284:48 4.63008e-05
49 *1311:I1 *1370:I 0
50 *1320:A2 *284:31 0
51 *1321:D *1369:I 0.000124522
52 *1321:D *284:31 0
53 *1329:D *284:67 0
54 *1331:D *284:67 0
55 *1331:CLK *284:67 0.00150378
56 *1336:RN *284:31 0
57 *1348:CLK *1349:RN 0
58 *1355:D *1369:I 4.02667e-05
59 *1367:I *1370:I 0.000614434
60 *1372:I *1371:I 0.000846773
61 *1385:I *1371:I 0
62 *1385:I *284:10 8.55327e-05
63 *1396:I *1369:I 0.000568463
64 *1396:I *1371:I 3.02712e-05
65 *1397:I *284:31 0.000359455
66 *1399:I *284:31 0.00026286
67 *1405:I *284:67 0
68 *1406:I *1331:SETN 2.22657e-05
69 *1406:I *284:61 5.67437e-05
70 *1407:I *284:61 0.000209639
71 *1408:I *284:31 2.95073e-05
72 *41:8 *1369:I 9.33169e-06
73 *41:55 *1369:I 9.50423e-05
74 *110:10 *1369:I 0.000264637
75 *178:8 *284:67 0
76 *182:12 *1349:RN 7.87702e-05
77 *182:12 *284:75 0
78 *182:14 *284:75 0
79 *197:16 *1369:I 9.12287e-05
80 *205:10 *1370:I 0.000634999
81 *225:16 *284:67 0.000133382
82 *225:18 *284:67 8.62306e-05
83 *225:24 *1352:RN 4.97386e-06
84 *226:22 *284:67 0.000114183
85 *227:6 *1349:RN 0
86 *227:21 *284:67 0.000149402
87 *227:21 *284:71 6.70163e-05
88 *227:21 *284:75 0.000180143
89 *238:12 *284:67 0.000161898
90 *238:20 *284:67 0.00217739
91 *238:35 *284:67 0.000589761
92 *243:71 *284:67 0.00110259
93 *243:71 *284:71 3.22131e-05
94 *243:71 *284:75 0.000763418
95 *243:75 *284:75 3.40822e-05
96 *243:112 *1351:RN 0.000340423
97 *243:112 *1352:RN 6.99759e-05
98 *246:8 *284:61 0.000354765
99 *253:12 *284:31 3.94946e-05
100 *272:10 *284:67 0
101 *273:10 *1331:SETN 0
102 *274:21 *284:48 4.27914e-05
103 *274:21 *284:61 9.58397e-05
104 *278:8 *1370:I 0.000160944
105 *278:12 *1370:I 5.96894e-05
106 *283:34 *1371:I 0.000214994
107 *283:41 *1371:I 0.000234381
108 *283:41 *284:6 4.22854e-06
109 *283:41 *284:10 0
110 *283:41 *284:31 0
111 *283:48 *284:31 0
112 *283:98 *284:31 0
*RES
1 *1372:Z *284:6 4.652 
2 *284:6 *284:10 1.748 
3 *284:10 *1369:I 25.66 
4 *284:10 *284:31 17.344 
5 *284:31 *1370:I 15.536 
6 *284:31 *284:48 8.148 
7 *284:48 *1332:SETN 4.5 
8 *284:48 *284:61 10.504 
9 *284:61 *284:67 26.98 
10 *284:67 *284:71 0.76 
11 *284:71 *284:75 8.68 
12 *284:75 *1352:RN 7.008 
13 *284:75 *1351:RN 7.236 
14 *284:71 *1350:RN 9 
15 *284:67 *1349:RN 12.876 
16 *284:61 *1331:SETN 10.52 
17 *284:6 *1371:I 17.604 
*END

*D_NET *285 0.0067505
*CONN
*I *1179:A1 I *D gf180mcu_fd_sc_mcu7t5v0__xor2_1
*I *1189:A1 I *D gf180mcu_fd_sc_mcu7t5v0__xor2_1
*I *1391:Z O *D gf180mcu_fd_sc_mcu7t5v0__dlyb_1
*CAP
1 *1179:A1 0.000842758
2 *1189:A1 3.261e-05
3 *1391:Z 0.000123415
4 *285:10 0.000998783
5 *1179:A1 *289:10 1.04712e-05
6 *1189:A1 *1193:A1 0.000137785
7 *285:10 *289:10 0.000121885
8 *1171:A2 *1179:A1 0
9 *1178:A2 *1179:A1 0
10 *1179:A2 *1179:A1 0.00107071
11 *1183:A2 *1179:A1 0.000205658
12 *1189:A2 *1189:A1 2.22758e-05
13 *1198:A1 *1179:A1 0
14 *1198:A1 *285:10 0
15 *1200:A1 *1179:A1 0.000242596
16 *1200:A1 *1189:A1 5.87561e-06
17 *1200:A1 *285:10 0.000272143
18 *1200:A3 *285:10 2.22758e-05
19 *1201:A1 *1179:A1 0.00064872
20 *1201:A3 *1179:A1 0.000574802
21 *1201:A4 *1179:A1 2.40658e-05
22 *1204:B1 *1179:A1 1.15275e-05
23 *91:10 *1179:A1 0
24 *226:34 *1179:A1 0.00126972
25 *241:21 *1179:A1 6.73926e-05
26 *248:14 *285:10 4.50449e-05
*RES
1 *1391:Z *285:10 10.52 
2 *285:10 *1189:A1 9.38 
3 *285:10 *1179:A1 19.488 
*END

*D_NET *286 0.00293086
*CONN
*I *1173:A1 I *D gf180mcu_fd_sc_mcu7t5v0__xor2_1
*I *1153:I I *D gf180mcu_fd_sc_mcu7t5v0__clkinv_1
*I *1392:Z O *D gf180mcu_fd_sc_mcu7t5v0__dlyb_1
*CAP
1 *1173:A1 0.000168143
2 *1153:I 0
3 *1392:Z 0.000570741
4 *286:10 0.000738884
5 *286:10 *1197:A1 0
6 *286:10 *288:10 0
7 *1198:A1 *286:10 0.000110818
8 *230:32 *1173:A1 0.000211486
9 *279:18 *286:10 0.00113079
*RES
1 *1392:Z *286:10 17.832 
2 *286:10 *1153:I 4.5 
3 *286:10 *1173:A1 5.792 
*END

*D_NET *287 0.00163573
*CONN
*I *1191:A1 I *D gf180mcu_fd_sc_mcu7t5v0__xor2_1
*I *1169:A1 I *D gf180mcu_fd_sc_mcu7t5v0__xor2_1
*I *1393:Z O *D gf180mcu_fd_sc_mcu7t5v0__dlyb_1
*CAP
1 *1191:A1 4.07175e-05
2 *1169:A1 0
3 *1393:Z 0.000334166
4 *287:12 0.000374884
5 *287:12 *1197:A1 0
6 *1191:A2 *1191:A1 0.000204383
7 *1191:A2 *287:12 1.11891e-05
8 *1197:A2 *1191:A1 1.18942e-05
9 *225:24 *287:12 0
10 *230:32 *287:12 0
11 *255:14 *1191:A1 0.000293723
12 *255:14 *287:12 0.00036477
*RES
1 *1393:Z *287:12 11.508 
2 *287:12 *1169:A1 9 
3 *287:12 *1191:A1 10.444 
*END

*D_NET *288 0.00380799
*CONN
*I *1197:A1 I *D gf180mcu_fd_sc_mcu7t5v0__xor2_1
*I *1175:A1 I *D gf180mcu_fd_sc_mcu7t5v0__xor2_1
*I *1394:Z O *D gf180mcu_fd_sc_mcu7t5v0__dlyb_1
*CAP
1 *1197:A1 0.000819331
2 *1175:A1 5.42135e-05
3 *1394:Z 0.000167633
4 *288:10 0.00104118
5 *1151:I *1197:A1 8.64281e-06
6 *1189:A2 *1175:A1 0.000171918
7 *1191:A2 *1197:A1 1.18942e-05
8 *1197:A2 *1197:A1 0.000367102
9 *1198:B2 *1197:A1 6.71936e-05
10 *1206:A1 *1197:A1 8.55327e-05
11 *1393:I *288:10 3.50929e-06
12 *1394:I *288:10 0
13 *229:27 *288:10 1.2018e-05
14 *255:14 *1197:A1 0
15 *279:12 *1197:A1 0.000145096
16 *279:12 *288:10 0.000543959
17 *279:18 *1175:A1 0.000171918
18 *279:18 *1197:A1 0.000136852
19 *286:10 *1197:A1 0
20 *286:10 *288:10 0
21 *287:12 *1197:A1 0
*RES
1 *1394:Z *288:10 10.672 
2 *288:10 *1175:A1 9.988 
3 *288:10 *1197:A1 15.384 
*END

*D_NET *289 0.0019315
*CONN
*I *1193:A1 I *D gf180mcu_fd_sc_mcu7t5v0__xor2_1
*I *1183:A1 I *D gf180mcu_fd_sc_mcu7t5v0__xnor2_1
*I *1395:Z O *D gf180mcu_fd_sc_mcu7t5v0__dlyb_1
*CAP
1 *1193:A1 0.000129135
2 *1183:A1 1.86378e-05
3 *1395:Z 0.000186685
4 *289:10 0.000334458
5 *1177:A3 *1183:A1 8.55242e-05
6 *1177:A3 *1193:A1 0.000770399
7 *1179:A1 *289:10 1.04712e-05
8 *1189:A1 *1193:A1 0.000137785
9 *1189:A2 *1193:A1 8.30183e-05
10 *1200:A1 *1183:A1 1.15244e-05
11 *1200:A1 *1193:A1 2.60158e-05
12 *1201:A4 *289:10 1.5961e-05
13 *252:12 *289:10 0
14 *285:10 *289:10 0.000121885
*RES
1 *1395:Z *289:10 14.944 
2 *289:10 *1183:A1 4.728 
3 *289:10 *1193:A1 6.552 
*END

*D_NET *290 0.00333464
*CONN
*I *1319:A1 I *D gf180mcu_fd_sc_mcu7t5v0__nand3_1
*I *1267:A2 I *D gf180mcu_fd_sc_mcu7t5v0__xor2_1
*I *1336:Q O *D gf180mcu_fd_sc_mcu7t5v0__dffrnq_1
*CAP
1 *1319:A1 0.000230923
2 *1267:A2 0.000119817
3 *1336:Q 0.000563304
4 *290:8 0.000914045
5 *1311:I1 *1267:A2 0.000458149
6 *1320:A2 *1319:A1 4.68103e-05
7 *1320:B *1319:A1 0.000589822
8 *1370:I *290:8 0
9 *253:12 *1267:A2 0.000107191
10 *253:12 *290:8 0.000234051
11 *278:8 *290:8 4.0819e-05
12 *278:12 *1267:A2 8.64281e-06
13 *278:12 *290:8 2.10669e-05
14 *284:48 *290:8 0
*RES
1 *1336:Q *290:8 13.18 
2 *290:8 *1267:A2 10.444 
3 *290:8 *1319:A1 10.976 
*END

*D_NET *291 0.00400881
*CONN
*I *1154:I I *D gf180mcu_fd_sc_mcu7t5v0__clkinv_1
*I *1270:A1 I *D gf180mcu_fd_sc_mcu7t5v0__oai21_1
*I *1213:A1 I *D gf180mcu_fd_sc_mcu7t5v0__nor2_1
*I *1215:A1 I *D gf180mcu_fd_sc_mcu7t5v0__nor3_1
*I *1321:Q O *D gf180mcu_fd_sc_mcu7t5v0__dffrnq_1
*CAP
1 *1154:I 9.7876e-05
2 *1270:A1 0.000170837
3 *1213:A1 0
4 *1215:A1 0
5 *1321:Q 0.000234157
6 *291:21 0.000234769
7 *291:14 0.00037138
8 *291:8 0.00063948
9 err_overflow_o *1154:I 1.61066e-05
10 err_overflow_o *291:8 0.000128363
11 *1214:A1 *291:14 2.74753e-05
12 *1214:A1 *291:21 3.73535e-05
13 *1214:A2 *1270:A1 7.24161e-06
14 *1214:A2 *291:21 6.11648e-05
15 *1215:A2 *291:14 5.59457e-05
16 *1216:A1 *1154:I 8.30464e-05
17 *1216:A1 *291:14 0.000242228
18 *1266:A2 *1270:A1 0
19 *1271:I *1270:A1 0.000392852
20 *1271:I *291:14 9.26705e-05
21 *1271:I *291:21 0.000460051
22 *1388:I *291:8 9.88736e-06
23 *1398:I *291:14 0.00013862
24 *1408:I *1270:A1 3.08902e-05
25 *1408:I *291:14 0
26 *1408:I *291:21 0.000154451
27 *261:8 *291:14 5.19228e-05
28 *283:48 *291:8 4.57473e-05
29 *284:31 *1270:A1 0.000224298
*RES
1 *1321:Q *291:8 10.748 
2 *291:8 *291:14 7.54 
3 *291:14 *1215:A1 4.5 
4 *291:14 *291:21 1.292 
5 *291:21 *1213:A1 4.5 
6 *291:21 *1270:A1 6.856 
7 *291:8 *1154:I 9.836 
*END

*D_NET *292 0.00526882
*CONN
*I *1274:A2 I *D gf180mcu_fd_sc_mcu7t5v0__xnor2_1
*I *1312:A1 I *D gf180mcu_fd_sc_mcu7t5v0__nand2_1
*I *1316:A1 I *D gf180mcu_fd_sc_mcu7t5v0__nand4_1
*I *1314:A1 I *D gf180mcu_fd_sc_mcu7t5v0__aoi21_1
*I *1311:S I *D gf180mcu_fd_sc_mcu7t5v0__mux2_2
*I *1333:Q O *D gf180mcu_fd_sc_mcu7t5v0__dffrnq_1
*CAP
1 *1274:A2 0.000116523
2 *1312:A1 0
3 *1316:A1 8.30338e-05
4 *1314:A1 2.69859e-05
5 *1311:S 0.000129609
6 *1333:Q 0.000103502
7 *292:41 0.000204889
8 *292:25 0.000256207
9 *292:21 0.000533528
10 *292:8 0.000532086
11 *1273:A2 *1274:A2 0.000317618
12 *1273:A2 *292:41 9.52854e-05
13 *1275:A2 *1274:A2 0.000262012
14 *1275:A2 *292:41 7.98048e-05
15 *1277:A1 *1274:A2 1.1971e-05
16 *1311:I0 *1311:S 5.76373e-06
17 *1311:I0 *292:8 3.45824e-05
18 *1313:A1 *1274:A2 0.000147313
19 *1313:A2 *1274:A2 0.000162958
20 *1316:A2 *1314:A1 2.96621e-05
21 *1316:A2 *1316:A1 0.000111867
22 *1316:A4 *1316:A1 2.40328e-06
23 *64:6 *1314:A1 1.02578e-05
24 *64:6 *1316:A1 6.50663e-05
25 *64:12 *1314:A1 2.22758e-05
26 *64:12 *292:25 0.000145096
27 *64:23 *292:25 0.000498804
28 *64:23 *292:41 0.000569434
29 *100:8 *292:25 3.50638e-06
30 *100:8 *292:41 1.34641e-06
31 *193:10 *1274:A2 8.59272e-06
32 *217:20 *1311:S 0.000111246
33 *217:20 *292:21 9.02023e-05
34 *241:77 *1316:A1 2.40328e-06
35 *282:12 *292:21 3.45793e-05
36 *282:23 *292:21 0.000348605
37 *282:31 *292:25 0.000109796
*RES
1 *1333:Q *292:8 5.26 
2 *292:8 *1311:S 5.412 
3 *292:8 *292:21 7.312 
4 *292:21 *292:25 6.096 
5 *292:25 *1314:A1 4.728 
6 *292:25 *1316:A1 5.336 
7 *292:21 *292:41 1.596 
8 *292:41 *1312:A1 9 
9 *292:41 *1274:A2 10.824 
*END

*D_NET *293 0.000440388
*CONN
*I *1265:A2 I *D gf180mcu_fd_sc_mcu7t5v0__or2_1
*I *1354:Q O *D gf180mcu_fd_sc_mcu7t5v0__dffsnq_1
*CAP
1 *1265:A2 0.000204895
2 *1354:Q 0.000204895
3 *1155:I *1265:A2 3.05986e-05
*RES
1 *1354:Q *1265:A2 10.216 
*END

*D_NET *294 0.00373666
*CONN
*I *1141:I I *D gf180mcu_fd_sc_mcu7t5v0__clkinv_1
*I *1165:A2 I *D gf180mcu_fd_sc_mcu7t5v0__nor2_1
*I *1355:Q O *D gf180mcu_fd_sc_mcu7t5v0__dffsnq_1
*CAP
1 *1141:I 8.15334e-05
2 *1165:A2 0.000183129
3 *1355:Q 0.000369705
4 *294:10 0.000634367
5 *1165:A1 *1165:A2 1.5015e-05
6 *1269:A1 *1141:I 8.9996e-05
7 *1269:A1 *294:10 0.000185141
8 *1272:A1 *294:10 0.00131034
9 *1278:A1 *1141:I 5.25982e-05
10 *1278:A1 *294:10 7.79072e-05
11 *1278:A2 *1165:A2 0.000239048
12 *1278:B1 *294:10 9.49072e-05
13 *1279:A2 *1165:A2 4.2318e-06
14 *152:8 *294:10 0.000131633
15 *194:19 *1141:I 8.49277e-05
16 *194:19 *1165:A2 4.80982e-06
17 *197:16 *1165:A2 0.000110022
18 *197:16 *294:10 5.69422e-05
19 *283:54 *294:10 1.04094e-05
*RES
1 *1355:Q *294:10 13.864 
2 *294:10 *1165:A2 10.596 
3 *294:10 *1141:I 10.216 
*END

*D_NET *295 0.0122705
*CONN
*I *1298:A1 I *D gf180mcu_fd_sc_mcu7t5v0__nand2_1
*I *1304:A1 I *D gf180mcu_fd_sc_mcu7t5v0__oai211_1
*I *1307:A1 I *D gf180mcu_fd_sc_mcu7t5v0__nand3_1
*I *1140:I I *D gf180mcu_fd_sc_mcu7t5v0__clkinv_1
*I *1166:A2 I *D gf180mcu_fd_sc_mcu7t5v0__nand4_1
*I *1356:Q O *D gf180mcu_fd_sc_mcu7t5v0__dffsnq_1
*CAP
1 *1298:A1 0
2 *1304:A1 0
3 *1307:A1 0.000455301
4 *1140:I 0
5 *1166:A2 0.000400882
6 *1356:Q 0.000859407
7 *295:36 0.000553023
8 *295:30 0.000414877
9 *295:23 0.000751762
10 *295:12 0.00169489
11 *1267:A1 *295:23 0.000830141
12 *1278:A1 *1166:A2 0
13 *1291:S *1307:A1 0.000338718
14 *1300:A2 *295:36 7.83988e-05
15 *1304:B *1307:A1 2.6126e-05
16 *1320:A1 *295:12 0
17 *1332:CLK *295:23 8.59638e-05
18 *1368:I *295:23 0.00126616
19 *1368:I *295:30 0.00125663
20 *84:26 *295:23 2.25184e-05
21 *186:10 *295:12 0
22 *186:10 *295:23 0.000110823
23 *194:19 *1166:A2 0
24 *205:10 *1166:A2 0
25 *205:10 *295:23 0
26 *240:58 *1166:A2 0.000277084
27 *240:66 *1166:A2 0.000431543
28 *244:67 *295:12 2.18834e-05
29 *244:69 *1166:A2 1.02823e-05
30 *244:69 *295:12 1.08091e-05
31 *244:69 *295:23 6.27827e-05
32 *244:78 *1166:A2 0
33 *244:107 *295:23 1.95806e-05
34 *246:10 *295:36 0.000151949
35 *246:12 *295:36 0.000596622
36 *246:14 *295:36 0.000634999
37 *253:12 *295:12 0
38 *257:14 *295:36 0.00090738
39 *283:54 *295:12 0
*RES
1 *1356:Q *295:12 19.276 
2 *295:12 *1166:A2 7.54 
3 *295:12 *295:23 6.156 
4 *295:23 *1140:I 4.5 
5 *295:23 *295:30 3.268 
6 *295:30 *295:36 12.268 
7 *295:36 *1307:A1 16.996 
8 *295:36 *1304:A1 4.5 
9 *295:30 *1298:A1 4.5 
*END
